User:   milias@Miro
Date:   Sun Jun 30 23:25:29 2024
Arch:   x86_64
Pid:    10843
Python: 3.10.12
gpaw:   /usr/lib/python3/dist-packages/gpaw
_gpaw:  /usr/lib/python3/dist-packages/_gpaw.cpython-310-x86_64-linux-gnu.so
ase:    /home/milias/.local/lib/python3.10/site-packages/ase (version 3.23.0)
numpy:  /home/milias/.local/lib/python3.10/site-packages/numpy (version 1.26.4)
scipy:  /home/milias/.local/lib/python3.10/site-packages/scipy (version 1.13.0)
units:  Angstrom and eV
cores: 1
OpenMP: False
OMP_NUM_THREADS: 1

Input parameters:
  kpts: {size: (4, 4, 4)}
  mixer: {backend: pulay,
          beta: 0.1,
          method: separate,
          nmaxold: 5,
          weight: 50.0}
  mode: {ecut: 700.0,
         name: pw}
  symmetry: off
  xc: PBE

System changes: positions, numbers, cell, pbc, initial_charges, initial_magmoms

Initialize ...

Ti-setup:
  name: Titanium
  id: d282db07e62ae71292040bf25b25ccdd
  Z: 22.0
  valence: 12
  core: 10
  charge: 0.0
  file: /usr/share/gpaw-setups/Ti.PBE.gz
  compensation charges: gauss, rc=0.38, lmax=2
  cutoffs: 2.23(filt), 1.02(core),
  valence states:
                energy  radius
    3s(2.00)   -62.623   1.270
    4s(2.00)    -4.466   1.270
    3p(6.00)   -38.862   1.058
    4p(0.00)    -1.466   1.058
    3d(2.00)    -4.258   1.058
    *d          22.953   1.058

  Using partial waves for Ti as LCAO basis

O-setup:
  name: Oxygen
  id: 32ecd46bf208036f09c70b0ec9a88b78
  Z: 8.0
  valence: 6
  core: 2
  charge: 0.0
  file: /usr/share/gpaw-setups/O.PBE.gz
  compensation charges: gauss, rc=0.21, lmax=2
  cutoffs: 1.17(filt), 0.83(core),
  valence states:
                energy  radius
    2s(2.00)   -23.961   0.688
    2p(4.00)    -9.029   0.598
    *s           3.251   0.688
    *p          18.182   0.598
    *d           0.000   0.619

  Using partial waves for O as LCAO basis

Reference energy: -109222.875536

Spin-paired calculation

Convergence criteria:
 Maximum [total energy] change in last 3 cyles: 0.0005 eV / electron
 Maximum integral of absolute [dens]ity change: 0.0001 electrons / valence electron
 Maximum integral of absolute [eigenst]ate change: 4e-08 eV^2 / valence electron
 Maximum number of scf [iter]ations: 333
 (Square brackets indicate name in SCF output, whereas a 'c' in
 the SCF output indicates the quantity has converged.)

Symmetries present (total): 1

  ( 1  0  0)
  ( 0  1  0)
  ( 0  0  1)

64 k-points: 4 x 4 x 4 Monkhorst-Pack grid
64 k-points in the irreducible part of the Brillouin zone
       k-points in crystal coordinates                weights
   0:    -0.37500000   -0.37500000   -0.37500000          1/64
   1:    -0.37500000   -0.37500000   -0.12500000          1/64
   2:    -0.37500000   -0.37500000    0.12500000          1/64
   3:    -0.37500000   -0.37500000    0.37500000          1/64
   4:    -0.37500000   -0.12500000   -0.37500000          1/64
   5:    -0.37500000   -0.12500000   -0.12500000          1/64
   6:    -0.37500000   -0.12500000    0.12500000          1/64
   7:    -0.37500000   -0.12500000    0.37500000          1/64
   8:    -0.37500000    0.12500000   -0.37500000          1/64
   9:    -0.37500000    0.12500000   -0.12500000          1/64
          ...
  63:     0.37500000    0.37500000    0.37500000          1/64

Wave functions: Plane wave expansion
  Cutoff energy: 700.000 eV
  Number of coefficients (min, max): 5231, 5265
  Pulay-stress correction: 0.000000 eV/Ang^3 (de/decut=0.000000)
  Using FFTW library
  ScaLapack parameters: grid=1x1, blocksize=None
  Wavefunction extrapolation:
    Improved wavefunction reuse through dual PAW basis

Occupation numbers: Fermi-Dirac: width=0.1000 eV

Eigensolver
   Davidson(niter=2)

Densities:
  Coarse grid: 30*30*40 grid
  Fine grid: 60*60*80 grid
  Total Charge: 0.000000

Density mixing:
  Method: separate
  Backend: pulay
  Linear mixing parameter: 0.1
  Mixing with 5 old densities
  Damping of long wave oscillations: 50

Hamiltonian:
  XC and Coulomb potentials evaluated on a 60*60*80 grid
  Using the PBE Exchange-Correlation functional
  External potential:
    NoExternalPotential

XC parameters: PBE with 2 nearest neighbor stencil

Total number of cores used: 1

Number of atoms: 12
Number of atomic orbitals: 84
Number of bands in calculation: 62
Number of valence electrons: 96
Bands to converge: occupied

... initialized

Initializing position-dependent things.

Density initialized from atomic densities
Creating initial wave functions:
  62 bands from LCAO basis set

    .---------O.
  / |  OTi     |
 *  |        Ti|
 | O|O         |
 |Ti|          |
 | O| O     O  |
 |  .------O---.
 |/    Ti    /

Positions:
   0 Ti     2.453424    0.056040    0.437977    ( 0.0000,  0.0000,  0.0000)
   1 Ti     0.192807    0.845209    3.928490    ( 0.0000,  0.0000,  0.0000)
   2 Ti     4.066401    2.962383    4.146115    ( 0.0000,  0.0000,  0.0000)
   3 Ti     1.951091    3.307489    4.515312    ( 0.0000,  0.0000,  0.0000)
   4 O      0.279505    2.352623    2.493471    ( 0.0000,  0.0000,  0.0000)
   5 O      4.108623    4.325330    5.792819    ( 0.0000,  0.0000,  0.0000)
   6 O      1.354385    0.602056    5.091250    ( 0.0000,  0.0000,  0.0000)
   7 O      4.024891    0.256411    2.627677    ( 0.0000,  0.0000,  0.0000)
   8 O      2.033834    1.565848    5.668332    ( 0.0000,  0.0000,  0.0000)
   9 O      0.037562    3.646012    2.749055    ( 0.0000,  0.0000,  0.0000)
  10 O      3.926181    2.651461    1.750195    ( 0.0000,  0.0000,  0.0000)
  11 O      1.800605    0.502570    3.454031    ( 0.0000,  0.0000,  0.0000)

Unit cell:
           periodic     x           y           z      points  spacing
  1. axis:    yes    4.594000    0.000000    0.000000    30     0.1531
  2. axis:    yes    0.000000    4.594000    0.000000    30     0.1531
  3. axis:    yes    0.000000    0.000000    5.918000    40     0.1479

  Lengths:   4.594000   4.594000   5.918000
  Angles:   90.000000  90.000000  90.000000

Effective grid spacing dv^(1/3) = 0.1514

     iter     time        total  log10-change:
                         energy  eigst   dens
iter:   1 23:26:50   -65.344881
iter:   2 23:27:14   -60.600592  -0.57  -1.00
iter:   3 23:27:38   -58.423151  -0.64  -1.11
iter:   4 23:28:09   -57.648021  -0.90  -1.26
iter:   5 23:28:43   -57.273988  -1.28  -1.40
iter:   6 23:29:24   -57.145778  -1.53  -1.61
iter:   7 23:29:57   -57.122869  -2.03  -1.88
iter:   8 23:30:35   -57.116254c -2.35  -2.05
iter:   9 23:31:10   -57.102246c -2.56  -2.28
iter:  10 23:31:44   -57.101456c -3.34  -2.65
iter:  11 23:32:20   -57.100805c -3.92  -2.79
iter:  12 23:32:56   -57.100187c -4.10  -2.96
iter:  13 23:33:24   -57.100178c -4.53  -3.17
iter:  14 23:33:53   -57.100183c -4.94  -3.35
iter:  15 23:34:22   -57.100204c -5.13  -3.53
iter:  16 23:34:45   -57.100168c -5.88  -3.72
iter:  17 23:35:07   -57.100157c -6.00  -3.88
iter:  18 23:35:30   -57.100163c -6.53  -4.12c
iter:  19 23:35:52   -57.100164c -6.95  -4.35c
iter:  20 23:36:17   -57.100160c -7.23  -4.52c
iter:  21 23:36:44   -57.100162c -7.60c -4.72c

Converged after 21 iterations.

Dipole moment: (-0.423851, -6.108406, 8.331099) |e|*Ang

Energy contributions relative to reference atoms: (reference = -109222.875536)

Kinetic:       +287.761779
Potential:     -227.983484
External:        +0.000000
XC:            -117.645600
Entropy (-ST):   -0.230693
Local:           +0.882490
Free energy:    -57.215508
Extrapolated:   -57.100162

Showing only first 2 kpts
 Kpt  Band  Eigenvalues  Occupancy
  0    46      7.86987    1.95851
  0    47      8.20004    1.26954
  0    48      8.31561    0.70736
  0    49      8.72768    0.01761

  1    46      7.79350    1.98045
  1    47      8.16822    1.40987
  1    48      8.35282    0.54777
  1    49      8.70816    0.02136

Fermi level: 8.25532

Forces in eV/Ang:
  0 Ti    4.18950   -4.40118    9.89360
  1 Ti   -5.31886    3.92879    1.12212
  2 Ti   -2.80124   -0.38468    7.98552
  3 Ti   -2.95361   -0.43623   -1.96560
  4 O     9.53096  -16.78984    0.83936
  5 O    -0.51728   -0.51963   -1.82535
  6 O     0.50629   -4.92142   10.68119
  7 O    -9.51861    6.96876   -8.04886
  8 O     2.89818    9.96990    0.58547
  9 O     8.73208   11.70287    1.26567
 10 O   -10.81610   -4.35683  -10.64414
 11 O     6.06604   -0.76541   -9.88056