     Program PWSCF v.6.7MaX starts on 12Jun2021 at 18:11: 9

     R & G space division:  proc/nbgrp/npool/nimage =      12
     Waiting for input...
     Reading input from standard input

     Current dimensions of program PWSCF are:
     Max number of different atomic species (ntypx) = 10
     Max number of k-points (npk) =  40000
     Max angular momentum in pseudopotentials (lmaxx) =  3
     Message from routine read_pp_mesh:
     mesh size missing, using the one in header

     Subspace diagonalization in iterative solution of the eigenvalue problem:
     a serial algorithm will be used

     bravais-lattice index     =            2
     lattice parameter (alat)  =      14.0000  a.u.
     unit-cell volume          =     686.0000 (a.u.)^3
     number of atoms/cell      =            2
     number of atomic types    =            1
     number of electrons       =         8.00
     number of Kohn-Sham states=            4
     kinetic-energy cutoff     =      30.0000  Ry
     charge density cutoff     =     120.0000  Ry
     scf convergence threshold =      1.0E-07
     mixing beta               =       0.7000
     number of iterations used =            8  plain     mixing
     energy convergence thresh.=      1.0E-05
     force convergence thresh. =      1.0E-04
     press convergence thresh. =      5.0E-01
     Exchange-correlation= PBE
                           (   1   4   3   4   0   0   0)
     nstep                     =           50

     celldm(1)=  14.000000  celldm(2)=   0.000000  celldm(3)=   0.000000
     celldm(4)=   0.000000  celldm(5)=   0.000000  celldm(6)=   0.000000

     crystal axes: (cart. coord. in units of alat)
               a(1) = (  -0.500000   0.000000   0.500000 )
               a(2) = (   0.000000   0.500000   0.500000 )
               a(3) = (  -0.500000   0.500000   0.000000 )

     reciprocal axes: (cart. coord. in units 2 pi/alat)
               b(1) = ( -1.000000 -1.000000  1.000000 )
               b(2) = (  1.000000  1.000000  1.000000 )
               b(3) = ( -1.000000  1.000000 -1.000000 )

     PseudoPot. # 1 for Si read from file:
     ./Si_r.upf
     MD5 check sum: c84abb4b0aac9c93a8e9f74896432a0a
     Pseudo is Norm-conserving + core correction, Zval =  4.0
     Generated using ONCVPSP code by D. R. Hamann
     Using radial grid of 1528 points,  6 beta functions with:
                l(1) =   0
                l(2) =   0
                l(3) =   1
                l(4) =   1
                l(5) =   2
                l(6) =   2

     atomic species   valence    mass     pseudopotential
        Si             4.00    28.08550     Si( 1.00)

     48 Sym. Ops., with inversion, found (24 have fractional translation)

   Cartesian axes

     site n.     atom                  positions (alat units)
         1           Si  tau(   1) = (   0.0000000   0.0000000   0.0000000  )
         2           Si  tau(   2) = (   0.2500000   0.2500000   0.2500000  )

     number of k points=    10
                       cart. coord. in units 2pi/alat
        k(    1) = (   0.0000000   0.0000000   0.0000000), wk =   0.0160000
        k(    2) = (  -0.2000000   0.2000000  -0.2000000), wk =   0.1280000
        k(    3) = (  -0.4000000   0.4000000  -0.4000000), wk =   0.1280000
        k(    4) = (   0.0000000   0.4000000   0.0000000), wk =   0.0960000
        k(    5) = (  -0.2000000   0.6000000  -0.2000000), wk =   0.3840000
        k(    6) = (   0.6000000  -0.2000000   0.6000000), wk =   0.3840000
        k(    7) = (   0.4000000   0.0000000   0.4000000), wk =   0.1920000
        k(    8) = (   0.0000000   0.8000000   0.0000000), wk =   0.0960000
        k(    9) = (   0.8000000   0.0000000   0.8000000), wk =   0.1920000
        k(   10) = (   0.6000000  -0.2000000   1.0000000), wk =   0.3840000

     Initial potential from superposition of free atoms

     starting charge    7.99877, renormalised to    8.00000
     Starting wfcs are    8 randomized atomic wfcs

     Self-consistent Calculation

     iteration #  1     ecut=    30.00 Ry     beta= 0.70
     Davidson diagonalization with overlap
     ethr =  1.00E-02,  avg # of iterations =  1.0

     Threshold (ethr) on eigenvalues was too large:
     Diagonalizing with lowered threshold

     Davidson diagonalization with overlap
     ethr =  1.42E-04,  avg # of iterations =  2.9

     total energy              =     -16.60702482 Ry
     estimated scf accuracy    <       0.01294989 Ry

[...]

     iteration #  4     ecut=    30.00 Ry     beta= 0.70
     Davidson diagonalization with overlap
     c_bands:  1 eigenvalues not converged
     ethr =  1.01E-07,  avg # of iterations =  9.6

[...]

     End of self-consistent calculation

          k = 0.0000 0.0000 0.0000 (  1917 PWs)   bands (ev):

    -8.0173  -4.0092  -0.2091  -0.2091

          k =-0.2000 0.2000-0.2000 (  1916 PWs)   bands (ev):

[...]

     highest occupied level (ev):    -0.2091

!    total energy              =     -16.60768884 Ry
     estimated scf accuracy    <       0.00000006 Ry

     The total energy is the sum of the following terms:
     one-electron contribution =      -0.97645960 Ry
     hartree contribution      =       2.15541051 Ry
     xc contribution           =      -5.47395847 Ry
     ewald contribution        =     -12.31268128 Ry

     convergence has been achieved in   5 iterations

     Forces acting on atoms (cartesian axes, Ry/au):

     atom    1 type  1   force =    -0.00000000    0.00000000    0.00000000
     atom    2 type  1   force =     0.00000000   -0.00000000   -0.00000000

     Total force =     0.000000     Total SCF correction =     0.000000

     Computing stress (Cartesian axis) and pressure

          total   stress  (Ry/bohr**3)                   (kbar)     P=      -90.67
  -0.00061637   0.00000000   0.00000000          -90.67        0.00        0.00
   0.00000000  -0.00061637  -0.00000000            0.00      -90.67       -0.00
   0.00000000  -0.00000000  -0.00061637            0.00       -0.00      -90.67

     BFGS Geometry Optimization
     Energy error            =      0.0E+00
     Gradient error          =      0.0E+00
     Cell gradient error     =      6.2E-04

     number of scf cycles    =   1
     number of bfgs steps    =   0

     enthalpy new            =     -16.6076888380 Ry

     new trust radius        =       0.0807184091 bohr
ibrav =      2
 celldm(1) =     13.78427097
Input lattice vectors:
    -0.49229539    -0.00000000     0.49229539
     0.00000000     0.49229539     0.49229539
    -0.49229539     0.49229539    -0.00000000
New lattice vectors in INITIAL alat:
    -0.49229539     0.00000000     0.49229539
     0.00000000     0.49229539     0.49229539
    -0.49229539     0.49229539     0.00000000
New lattice vectors in NEW alat (for information only):
    -0.50000000     0.00000000     0.50000000
     0.00000000     0.50000000     0.50000000
    -0.50000000     0.50000000     0.00000000
Discrepancy in bohr =     0.000000    0.000000    0.000000
     new conv_thr            =       0.0000001000 Ry

     new unit-cell volume =    654.77398 a.u.^3 (    97.02749 Ang^3 )
     density =      0.96132 g/cm^3

CELL_PARAMETERS (alat= 14.00000000)
  -0.492295392   0.000000000   0.492295392
   0.000000000   0.492295392   0.492295392
  -0.492295392   0.492295392   0.000000000

ATOMIC_POSITIONS (alat)
Si            0.0000000000        0.0000000000        0.0000000000    0   0   0
Si            0.2461476960        0.2461476960        0.2461476960    0   0   0

     Writing output data file ./outdir/si.save/
     NEW-OLD atomic charge density approx. for the potential
     extrapolated charge    7.61854, renormalised to    8.00000

[...]

     Energy error            =      2.0E-02
     Gradient error          =      0.0E+00
     Cell gradient error     =      6.5E-04

[...]

     enthalpy old            =     -16.6076888380 Ry
     enthalpy new            =     -16.6275197000 Ry

     CASE: enthalpy_new < enthalpy_old

     WARNING: bfgs curvature condition failed, Theta= 0.778
     new trust radius        =       0.1201411365 bohr
ibrav =      2
 celldm(1) =     13.46067744
Input lattice vectors:
    -0.48073848    -0.00000000     0.48073848
     0.00000000     0.48073848     0.48073848
    -0.48073848     0.48073848    -0.00000000
New lattice vectors in INITIAL alat:
    -0.48073848     0.00000000     0.48073848
     0.00000000     0.48073848     0.48073848
    -0.48073848     0.48073848     0.00000000
New lattice vectors in NEW alat (for information only):
    -0.50000000     0.00000000     0.50000000
     0.00000000     0.50000000     0.50000000
    -0.50000000     0.50000000     0.00000000
Discrepancy in bohr =     0.000000    0.000000    0.000000
     new conv_thr            =       0.0000000010 Ry

[...]

     WARNING: bfgs curvature condition failed, Theta= 0.661
     uphill step: resetting bfgs history

[...]

     WARNING: bfgs curvature condition failed, Theta= 0.588
     uphill step: resetting bfgs history

[...]

     WARNING: bfgs curvature condition failed, Theta= 0.814
     new trust radius        =       0.1457152591 bohr
ibrav =      2
 celldm(1) =     11.62364611
Input lattice vectors:
    -0.41513022     0.00000000     0.41513022
    -0.00000000     0.41513022     0.41513022
    -0.41513022     0.41513022     0.00000000
New lattice vectors in INITIAL alat:
    -0.41513022     0.00000000     0.41513022
     0.00000000     0.41513022     0.41513022
    -0.41513022     0.41513022     0.00000000
New lattice vectors in NEW alat (for information only):
    -0.50000000     0.00000000     0.50000000
     0.00000000     0.50000000     0.50000000
    -0.50000000     0.50000000     0.00000000
Discrepancy in bohr =     0.000000    0.000000    0.000000
     new conv_thr            =       0.0000000010 Ry

[...]

     number of scf cycles    =  14
     number of bfgs steps    =  13

     enthalpy old            =     -16.9202972827 Ry
     enthalpy new            =     -16.9203398027 Ry

     CASE: enthalpy_new < enthalpy_old

     new trust radius        =       0.0001411523 bohr
ibrav =      2
 celldm(1) =     10.34272040
Input lattice vectors:
    -0.36938287     0.00000000     0.36938287
    -0.00000000     0.36938287     0.36938287
    -0.36938287     0.36938287     0.00000000
New lattice vectors in INITIAL alat:
    -0.36938287     0.00000000     0.36938287
     0.00000000     0.36938287     0.36938287
    -0.36938287     0.36938287     0.00000000
New lattice vectors in NEW alat (for information only):
    -0.50000000     0.00000000     0.50000000
     0.00000000     0.50000000     0.50000000
    -0.50000000     0.50000000     0.00000000
Discrepancy in bohr =     0.000000    0.000000    0.000000
     new conv_thr            =       0.0000000010 Ry

     new unit-cell volume =    276.59502 a.u.^3 (    40.98715 Ang^3 )
     density =      2.27569 g/cm^3

[...]

ATOMIC_POSITIONS (alat)
Si            0.0000000000        0.0000000000        0.0000000000    0   0   0
Si            0.1846914356        0.1846914356        0.1846914356    0   0   0

     Writing output data file ./outdir/si.save/
     NEW-OLD atomic charge density approx. for the potential
     extrapolated charge    7.99898, renormalised to    8.00000

[...]

     Threshold (ethr) on eigenvalues was too large:
     Diagonalizing with lowered threshold

     Davidson diagonalization with overlap
     ethr =  7.02E-11,  avg # of iterations =  3.6

[...]

     Energy error            =      1.6E-08
     Gradient error          =      0.0E+00
     Cell gradient error     =      2.7E-08

ibrav =      2
 celldm(1) =     10.34272040
Input lattice vectors:
    -0.36938287     0.00000000     0.36938287
     0.00000000     0.36938287     0.36938287
    -0.36938287     0.36938287     0.00000000
New lattice vectors in INITIAL alat:
    -0.36938287     0.00000000     0.36938287
     0.00000000     0.36938287     0.36938287
    -0.36938287     0.36938287     0.00000000
New lattice vectors in NEW alat (for information only):
    -0.50000000     0.00000000     0.50000000
     0.00000000     0.50000000     0.50000000
    -0.50000000     0.50000000     0.00000000
Discrepancy in bohr =     0.000000    0.000000    0.000000

     bfgs converged in  15 scf cycles and  14 bfgs steps
     (criteria: energy <  1.0E-05 Ry, force <  1.0E-04Ry/Bohr, cell <  5.0E-01kbar)

     End of BFGS Geometry Optimization

     Final enthalpy =     -16.9203398182 Ry

     File ./outdir/si.bfgs deleted, as requested
Begin final coordinates
     new unit-cell volume =    276.59502 a.u.^3 (    40.98715 Ang^3 )
     density =      2.27569 g/cm^3

CELL_PARAMETERS (alat= 14.00000000)
  -0.369382871   0.000000000   0.369382871
   0.000000000   0.369382871   0.369382871
  -0.369382871   0.369382871   0.000000000

ATOMIC_POSITIONS (alat)
Si            0.0000000000        0.0000000000        0.0000000000    0   0   0
Si            0.1846914356        0.1846914356        0.1846914356    0   0   0
End final coordinates

     Writing output data file ./outdir/si.save/

     Final scf calculation at the relaxed structure.
     The G-vectors are recalculated for the final unit cell
     Results may differ from those at the preceding step.

     bravais-lattice index     =            2
     lattice parameter (alat)  =      14.0000  a.u.
     unit-cell volume          =     276.5950 (a.u.)^3
     number of atoms/cell      =            2
     number of atomic types    =            1
     number of electrons       =         8.00
     number of Kohn-Sham states=            4
     kinetic-energy cutoff     =      30.0000  Ry
     charge density cutoff     =     120.0000  Ry
     scf convergence threshold =      1.0E-09
     mixing beta               =       0.7000
     number of iterations used =            8  plain     mixing
     press convergence thresh. =      5.0E-01
     Exchange-correlation= PBE
                           (   1   4   3   4   0   0   0)

     celldm(1)=  14.000000  celldm(2)=   0.000000  celldm(3)=   0.000000
     celldm(4)=   0.000000  celldm(5)=   0.000000  celldm(6)=   0.000000

     crystal axes: (cart. coord. in units of alat)
               a(1) = (  -0.369383   0.000000   0.369383 )
               a(2) = (   0.000000   0.369383   0.369383 )
               a(3) = (  -0.369383   0.369383   0.000000 )

     reciprocal axes: (cart. coord. in units 2 pi/alat)
               b(1) = ( -1.353609 -1.353609  1.353609 )
               b(2) = (  1.353609  1.353609  1.353609 )
               b(3) = ( -1.353609  1.353609 -1.353609 )

     PseudoPot. # 1 for Si read from file:
     ./Si_r.upf
     MD5 check sum: c84abb4b0aac9c93a8e9f74896432a0a
     Pseudo is Norm-conserving + core correction, Zval =  4.0
     Generated using ONCVPSP code by D. R. Hamann
     Using radial grid of 1528 points,  6 beta functions with:
                l(1) =   0
                l(2) =   0
                l(3) =   1
                l(4) =   1
                l(5) =   2
                l(6) =   2

     atomic species   valence    mass     pseudopotential
        Si             4.00    28.08550     Si( 1.00)

     48 Sym. Ops., with inversion, found (24 have fractional translation)

   Cartesian axes

     site n.     atom                  positions (alat units)
         1           Si  tau(   1) = (   0.0000000   0.0000000   0.0000000  )
         2           Si  tau(   2) = (   0.1846914   0.1846914   0.1846914  )

     number of k points=    10
                       cart. coord. in units 2pi/alat
        k(    1) = (   0.0000000   0.0000000   0.0000000), wk =   0.0160000
        k(    2) = (  -0.2707218   0.2707218  -0.2707218), wk =   0.1280000
        k(    3) = (  -0.5414436   0.5414436  -0.5414436), wk =   0.1280000
        k(    4) = (   0.0000000   0.5414436   0.0000000), wk =   0.0960000
        k(    5) = (  -0.2707218   0.8121654  -0.2707218), wk =   0.3840000
        k(    6) = (   0.8121654  -0.2707218   0.8121654), wk =   0.3840000
        k(    7) = (   0.5414436   0.0000000   0.5414436), wk =   0.1920000
        k(    8) = (   0.0000000   1.0828872   0.0000000), wk =   0.0960000
        k(    9) = (   1.0828872   0.0000000   1.0828872), wk =   0.1920000
        k(   10) = (   0.8121654  -0.2707218   1.3536091), wk =   0.3840000

     Initial potential from superposition of free atoms

     starting charge    7.99877, renormalised to    8.00000
     Starting wfcs are    8 randomized atomic wfcs

     Self-consistent Calculation

[...]

     total energy              =     -16.92000637 Ry
     estimated scf accuracy    <          3.2E-09 Ry

     iteration #  8     ecut=    30.00 Ry     beta= 0.70
     Davidson diagonalization with overlap
     ethr =  3.95E-11,  avg # of iterations =  1.1

     End of self-consistent calculation

[...]

          k =-0.2707 0.8122-0.2707 (   763 PWs)   bands (ev):

[...]

          k = 0.8122-0.2707 1.3536 (   754 PWs)   bands (ev):

    -2.7197  -0.5129   2.1167   3.0827

     highest occupied level (ev):     6.0078

!    total energy              =     -16.92000637 Ry
     estimated scf accuracy    <          8.8E-10 Ry

     The total energy is the sum of the following terms:
     one-electron contribution =       4.78372552 Ry
     hartree contribution      =       1.12547092 Ry
     xc contribution           =      -6.16264593 Ry
     ewald contribution        =     -16.66655689 Ry

     convergence has been achieved in   8 iterations

     Forces acting on atoms (cartesian axes, Ry/au):

     atom    1 type  1   force =     0.00000000    0.00000000    0.00000000
     atom    2 type  1   force =     0.00000000    0.00000000    0.00000000

     Total force =     0.000000     Total SCF correction =     0.000000

     Computing stress (Cartesian axis) and pressure

          total   stress  (Ry/bohr**3)                   (kbar)     P=       -0.62
  -0.00000421  -0.00000000  -0.00000000           -0.62       -0.00       -0.00
   0.00000000  -0.00000421  -0.00000000            0.00       -0.62       -0.00
  -0.00000000   0.00000000  -0.00000421           -0.00        0.00       -0.62

     Writing output data file ./outdir/si.save/

     General routines

     Parallel routines

   This run was terminated on:  18:11:19  12Jun2021

   JOB DONE.