     Program PWSCF v.6.7MaX starts on 13Mar2025 at 15: 8:16

     R & G space division:  proc/nbgrp/npool/nimage =       2
     Waiting for input...
     Reading input from standard input
Warning: card &CELL ignored
Warning: card / ignored

     Current dimensions of program PWSCF are:
     Max number of different atomic species (ntypx) = 10
     Max number of k-points (npk) =  40000
     Max angular momentum in pseudopotentials (lmaxx) =  3
     Message from routine read_pp_mesh:
     mesh size missing, using the one in header

     Subspace diagonalization in iterative solution of the eigenvalue problem:
     a serial algorithm will be used

     bravais-lattice index     =            4
     lattice parameter (alat)  =       8.2509  a.u.
     unit-cell volume          =     551.8937 (a.u.)^3
     number of atoms/cell      =            3
     number of atomic types    =            1
     number of electrons       =        48.00
     number of Kohn-Sham states=           29
     kinetic-energy cutoff     =      25.0000  Ry
     charge density cutoff     =     225.0000  Ry
     scf convergence threshold =      1.0E-06
     mixing beta               =       0.7000
     number of iterations used =            8  plain     mixing
     energy convergence thresh.=      1.0E-04
     force convergence thresh. =      1.0E-03
     Exchange-correlation= PBE
                           (   1   4   3   4   0   0   0)
     nstep                     =          100

     celldm(1)=   8.250922  celldm(2)=   0.000000  celldm(3)=   1.134533
     celldm(4)=   0.000000  celldm(5)=   0.000000  celldm(6)=   0.000000

     crystal axes: (cart. coord. in units of alat)
               a(1) = (   1.000000   0.000000   0.000000 )
               a(2) = (  -0.500000   0.866025   0.000000 )
               a(3) = (   0.000000   0.000000   1.134533 )

     reciprocal axes: (cart. coord. in units 2 pi/alat)
               b(1) = (  1.000000  0.577350 -0.000000 )
               b(2) = (  0.000000  1.154701  0.000000 )
               b(3) = (  0.000000 -0.000000  0.881420 )

     PseudoPot. # 1 for Se read from file:
     ./Se.upf
     MD5 check sum: 3cc46b3642295b3f4fdae63b742ce36d
     Pseudo is Norm-conserving + core correction, Zval = 16.0
     Generated using ONCVPSP code by D. R. Hamann
     Using radial grid of 1214 points,  6 beta functions with:
                l(1) =   0
                l(2) =   0
                l(3) =   1
                l(4) =   1
                l(5) =   2
                l(6) =   2

     atomic species   valence    mass     pseudopotential
        Se            16.00    78.96000     Se( 1.00)

      6 Sym. Ops. (no inversion) found ( 4 have fractional translation)

   Cartesian axes

     site n.     atom                  positions (alat units)
         1           Se  tau(   1) = (   0.2254000   0.0000000   0.3781778  )
         2           Se  tau(   2) = (  -0.1127000   0.1952021   0.7563556  )
         3           Se  tau(   3) = (   0.3873000   0.6708233   0.0000000  )

     number of k points=     6  Gaussian smearing, width (Ry)=  0.0100
                       cart. coord. in units 2pi/alat
        k(    1) = (   0.0000000   0.0000000   0.0000000), wk =   0.1111111
        k(    2) = (   0.0000000   0.0000000  -0.4407098), wk =   0.1111111
        k(    3) = (   0.0000000   0.3849002   0.0000000), wk =   0.6666667
        k(    4) = (   0.0000000   0.3849002  -0.4407098), wk =   0.6666667
        k(    5) = (   0.3333333   0.5773503   0.0000000), wk =   0.2222222
        k(    6) = (   0.3333333   0.5773503  -0.4407098), wk =   0.2222222

     Initial potential from superposition of free atoms

     starting charge   47.99979, renormalised to   48.00000
     Starting wfcs are   27 randomized atomic wfcs +    2 random wfcs

     Self-consistent Calculation

     iteration #  1     ecut=    25.00 Ry     beta= 0.70
     Davidson diagonalization with overlap
     ethr =  1.00E-02,  avg # of iterations =  5.5

     total energy              =    -652.29475959 Ry
     estimated scf accuracy    <      22.40853710 Ry

[...]

     End of self-consistent calculation

          k = 0.0000 0.0000 0.0000 (  1167 PWs)   bands (ev):

   -31.2305 -31.2305 -30.5425 -30.0912 -30.0912 -29.4376 -29.3160 -29.3160
   -28.4948 -28.0395 -28.0395 -27.5936 -26.5345 -26.5345 -25.7931 -10.9805
    -7.8551  -7.8551   2.3361   2.3361   2.8060   4.6469   4.6469   5.6845
     7.4905   7.4905   8.3006  12.6409  15.8224

[...]

     the Fermi energy is     6.1923 ev

!    total energy              =    -654.62400653 Ry
     estimated scf accuracy    <       0.00000013 Ry
     smearing contrib. (-TS)   =      -0.00000003 Ry
     internal energy E=F+TS    =    -654.62400650 Ry

     The total energy is F=E-TS. E is the sum of the following terms:
     one-electron contribution =    -339.90097353 Ry
     hartree contribution      =     182.97336811 Ry
     xc contribution           =    -131.55741724 Ry
     ewald contribution        =    -366.13898384 Ry

     convergence has been achieved in   7 iterations

     Forces acting on atoms (cartesian axes, Ry/au):

     atom    1 type  1   force =    -0.05497957    0.00000000    0.00000000
     atom    2 type  1   force =     0.02748978   -0.04761370    0.00000000
     atom    3 type  1   force =     0.02748978    0.04761370    0.00000000

     Total force =     0.095227     Total SCF correction =     0.001183

     BFGS Geometry Optimization
     Energy error            =      0.0E+00
     Gradient error          =      5.5E-02

     number of scf cycles    =   1
     number of bfgs steps    =   0

     energy   new            =    -654.6240065316 Ry

     new trust radius        =       0.0549795668 bohr
     new conv_thr            =       0.0000010000 Ry

ATOMIC_POSITIONS (angstrom)
Se            0.9550475462        0.0000000000        1.6512000000
Se           -0.4775237731        0.8270954368        3.3024000000
Se            1.7055762269        2.9541446812        0.0000000000

     Writing output data file ./pwscf.save/
     NEW-OLD atomic charge density approx. for the potential

     negative rho (up, down):  1.107E-02 0.000E+00

[...]

     Total force =     0.053331     Total SCF correction =     0.009106
     SCF correction compared to forces is large: reduce conv_thr to get better values
     Energy error            =      7.5E-03
     Gradient error          =      3.1E-02

[...]

     energy   old            =    -654.6240065316 Ry
     energy   new            =    -654.6315042332 Ry

     CASE: energy  _new < energy  _old

[...]

     negative rho (up, down):  1.776E-04 0.000E+00

[...]

     Total force =     0.011238     Total SCF correction =     0.000596
     Energy error            =      2.5E-03
     Gradient error          =      6.5E-03

     number of scf cycles    =   3
     number of bfgs steps    =   2

     energy   old            =    -654.6315042332 Ry
     energy   new            =    -654.6339654048 Ry

     CASE: energy  _new < energy  _old

     new trust radius        =       0.0105260171 bohr
     new conv_thr            =       0.0000000649 Ry

ATOMIC_POSITIONS (angstrom)
Se            0.9286143473        0.0000000000        1.6512000000
Se           -0.4643071737        0.8042036151        3.3024000000
Se            1.7187928263        2.9770365029        0.0000000000

     Writing output data file ./pwscf.save/
     NEW-OLD atomic charge density approx. for the potential

     Self-consistent Calculation

[...]

     total energy              =    -654.63406337 Ry
     estimated scf accuracy    <       0.00000007 Ry

     iteration #  6     ecut=    25.00 Ry     beta= 0.70
     Davidson diagonalization with overlap
     ethr =  1.37E-10,  avg # of iterations =  2.0

     End of self-consistent calculation

[...]

          k = 0.3333 0.5774-0.4407 (  1152 PWs)   bands (ev):

   -30.7986 -29.9889 -29.9889 -29.3507 -29.3507 -28.4368 -27.9861 -27.9861
   -27.6635 -27.0268 -26.9937 -26.9937 -26.4112 -26.3366 -26.3366 -10.0528
   -10.0528  -6.7656   0.8210   1.7673   1.7673   5.1721   5.7925   5.7925
     6.6866   8.8846   8.8846  15.3075  16.8438

     the Fermi energy is     6.2465 ev

!    total energy              =    -654.63406342 Ry
     estimated scf accuracy    <          9.0E-10 Ry
     smearing contrib. (-TS)   =      -0.00000004 Ry
     internal energy E=F+TS    =    -654.63406338 Ry

     The total energy is F=E-TS. E is the sum of the following terms:
     one-electron contribution =    -349.20974754 Ry
     hartree contribution      =     187.62798830 Ry
     xc contribution           =    -131.65154018 Ry
     ewald contribution        =    -361.40076396 Ry

     convergence has been achieved in   6 iterations

     Forces acting on atoms (cartesian axes, Ry/au):

     atom    1 type  1   force =    -0.00051136   -0.00000000    0.00000000
     atom    2 type  1   force =     0.00025568   -0.00044285    0.00000000
     atom    3 type  1   force =     0.00025568    0.00044285   -0.00000000

     Total force =     0.000886     Total SCF correction =     0.000169
     SCF correction compared to forces is large: reduce conv_thr to get better values
     Energy error            =      9.8E-05
     Gradient error          =      5.1E-04

     bfgs converged in   4 scf cycles and   3 bfgs steps
     (criteria: energy <  1.0E-04 Ry, force <  1.0E-03 Ry/Bohr)

     End of BFGS Geometry Optimization

     Final energy   =    -654.6340634184 Ry

     File ./pwscf.bfgs deleted, as requested
Begin final coordinates

ATOMIC_POSITIONS (angstrom)
Se            0.9286143473        0.0000000000        1.6512000000
Se           -0.4643071737        0.8042036151        3.3024000000
Se            1.7187928263        2.9770365029        0.0000000000
End final coordinates

     Writing output data file ./pwscf.save/

     General routines

     Parallel routines

   This run was terminated on:  15: 8:21  13Mar2025

   JOB DONE.