     Program PWSCF v.6.3MaX starts on  6Jul2020 at 13:40:11

     Waiting for input...
     Reading input from standard input

     Current dimensions of program PWSCF are:
     Max number of different atomic species (ntypx) = 10
     Max number of k-points (npk) =  40000
     Max angular momentum in pseudopotentials (lmaxx) =  3
     Message from routine read_upf::
     Pseudo file ./Si.rel-pbe-n-kjpaw_psl.0.1.UPF has been successfully fixed on the fly.
To avoid this message in the future you can permanently fix
 your pseudo files following instructions given in:
               file Si.rel-pbe-n-kjpaw_psl.0.1.UPF: wavefunction(s)  3S renormalized

     Subspace diagonalization in iterative solution of the eigenvalue problem:
     a serial algorithm will be used

     bravais-lattice index     =            0
     lattice parameter (alat)  =       8.0174  a.u.
     unit-cell volume          =     364.4101 (a.u.)^3
     number of atoms/cell      =            2
     number of atomic types    =            1
     number of electrons       =         8.00
     number of Kohn-Sham states=           20
     kinetic-energy cutoff     =      20.0000  Ry
     charge density cutoff     =      80.0000  Ry
     convergence threshold     =      1.0E-06
     mixing beta               =       0.7000
     number of iterations used =            8  plain     mixing
     Exchange-correlation      = SLA PW PBX PBC ( 1  4  3  4 0 0)
     nstep                     =           50

     Non magnetic calculation with spin-orbit

     celldm(1)=   8.017429  celldm(2)=   0.000000  celldm(3)=   0.000000
     celldm(4)=   0.000000  celldm(5)=   0.000000  celldm(6)=   0.000000

     crystal axes: (cart. coord. in units of alat)
               a(1) = (   0.000000   0.707107   0.707107 )
               a(2) = (   0.707107   0.000000   0.707107 )
               a(3) = (   0.707107   0.707107   0.000000 )

     reciprocal axes: (cart. coord. in units 2 pi/alat)
               b(1) = ( -0.707107  0.707107  0.707107 )
               b(2) = (  0.707107 -0.707107  0.707107 )
               b(3) = (  0.707107  0.707107 -0.707107 )

     PseudoPot. # 1 for Si read from file:
     ./Si.rel-pbe-n-kjpaw_psl.0.1.UPF
     MD5 check sum: 67eb1bc5c689d7b48afd963eedacb1f1
     Pseudo is Projector augmented-wave + core cor, Zval =  4.0
     Generated using "atomic" code by A. Dal Corso v.5.0.2 svn rev. 9415
     Shape of augmentation charge: PSQ
     Using radial grid of 1141 points,  6 beta functions with:
                l(1) =   0
                l(2) =   0
                l(3) =   1
                l(4) =   1
                l(5) =   1
                l(6) =   1
     Q(r) pseudized with 0 coefficients

     atomic species   valence    mass     pseudopotential
        Si             4.00    27.97693     Si( 1.00)

     12 Sym. Ops., with inversion, found

   Cartesian axes

     site n.     atom                  positions (alat units)
         1           Si  tau(   1) = (  -0.1599829  -0.1599829  -0.1599829  )
         2           Si  tau(   2) = (   0.1599829   0.1599829   0.1599829  )

     number of k points=   116

     Number of k-points >= 100: set verbosity='high' to print them.

     Check: negative/imaginary core charge=   -0.000009    0.000000

     Initial potential from superposition of free atoms

     starting charge    7.99890, renormalised to    8.00000
     Starting wfcs are   16 randomized atomic wfcs +    4 random wfcs
     Checking if some PAW data can be deallocated...

     Self-consistent Calculation

     iteration #  1     ecut=    20.00 Ry     beta= 0.70
     Davidson diagonalization with overlap
     ethr =  1.00E-02,  avg # of iterations =  5.3

     Threshold (ethr) on eigenvalues was too large:
     Diagonalizing with lowered threshold

     Davidson diagonalization with overlap
     ethr =  4.43E-04,  avg # of iterations =  1.7

     total energy              =     -93.39351988 Ry
     Harris-Foulkes estimate   =     -93.39846551 Ry
     estimated scf accuracy    <       0.03493516 Ry

[...]

     End of self-consistent calculation

     Number of k-points >= 100: set verbosity='high' to print the bands.

     highest occupied, lowest unoccupied level (ev):     4.0611    3.7595

!    total energy              =     -93.39419827 Ry
     Harris-Foulkes estimate   =     -93.39419816 Ry
     estimated scf accuracy    <       0.00000019 Ry

     total all-electron energy =     -1160.076256 Ry

     The total energy is the sum of the following terms:

     one-electron contribution =       3.51873215 Ry
     hartree contribution      =       1.39252141 Ry
     xc contribution           =     -11.94086682 Ry
     ewald contribution        =     -15.15087361 Ry
     one-center paw contrib.   =     -71.21371141 Ry

     convergence has been achieved in   4 iterations

     Forces acting on atoms (cartesian axes, Ry/au):

     atom    1 type  1   force =    -0.05142275   -0.05142275   -0.05142275
     atom    2 type  1   force =     0.05142275    0.05142275    0.05142275

     Total force =     0.125960     Total SCF correction =     0.000005

     Computing stress (Cartesian axis) and pressure

     Message from routine stres:
     noncollinear stress + GGA not implemented

     BFGS Geometry Optimization

     number of scf cycles    =   1
     number of bfgs steps    =   0

     enthalpy new            =     -93.3941982660 Ry

     new trust radius        =       0.0890668180 bohr
     new conv_thr            =       0.0000010000 Ry

     new unit-cell volume =    364.41007 a.u.^3 (    54.00000 Ang^3 )
     density =      1.72062 g/cm^3

CELL_PARAMETERS (angstrom)
   0.000000000   3.000000000   3.000000000
   3.000000000   0.000000000   3.000000000
   3.000000000   3.000000000   0.000000000

ATOMIC_POSITIONS (angstrom)
Si      -0.705961748  -0.705961748  -0.705961748
Si       0.705961748   0.705961748   0.705961748

     Writing output data file qe.save/
     NEW-OLD atomic charge density approx. for the potential

[...]

     enthalpy old            =     -93.3941982660 Ry
     enthalpy new            =     -93.4066276762 Ry

     CASE: enthalpy_new < enthalpy_old

[...]

     iteration #  1     ecut=    20.00 Ry     beta= 0.70
     Davidson diagonalization with overlap
     c_bands:  2 eigenvalues not converged
     ethr =  1.00E-06,  avg # of iterations =  5.0

[...]

     number of scf cycles    =   4
     number of bfgs steps    =   3

     enthalpy old            =     -93.4131191327 Ry
     enthalpy new            =     -93.4138137366 Ry

     CASE: enthalpy_new < enthalpy_old

     new trust radius        =       0.0041121916 bohr
     new conv_thr            =       0.0000000100 Ry

     new unit-cell volume =    364.41007 a.u.^3 (    54.00000 Ang^3 )
     density =      1.72062 g/cm^3

[...]

ATOMIC_POSITIONS (angstrom)
Si      -0.749879790  -0.749879790  -0.749879790
Si       0.749879790   0.749879790   0.749879790

     Writing output data file qe.save/
     NEW-OLD atomic charge density approx. for the potential

[...]

     Threshold (ethr) on eigenvalues was too large:
     Diagonalizing with lowered threshold

     Davidson diagonalization with overlap
     ethr =  4.84E-09,  avg # of iterations =  2.7

[...]

     bfgs converged in   5 scf cycles and   4 bfgs steps
     (criteria: energy <  1.0E-04 Ry, force <  1.0E-03Ry/Bohr, cell <  5.0E-01kbar)

     End of BFGS Geometry Optimization

     Final enthalpy =     -93.4138202019 Ry
Begin final coordinates
     new unit-cell volume =    364.41007 a.u.^3 (    54.00000 Ang^3 )
     density =      1.72062 g/cm^3

CELL_PARAMETERS (angstrom)
   0.000000000   3.000000000   3.000000000
   3.000000000   0.000000000   3.000000000
   3.000000000   3.000000000   0.000000000

ATOMIC_POSITIONS (angstrom)
Si      -0.749879790  -0.749879790  -0.749879790
Si       0.749879790   0.749879790   0.749879790
End final coordinates

     Writing output data file qe.save/

     A final scf calculation at the relaxed structure.
     The G-vectors are recalculated for the final unit cell
     Results may differ from those at the preceding step.

     bravais-lattice index     =            0
     lattice parameter (alat)  =       8.0174  a.u.
     unit-cell volume          =     364.4101 (a.u.)^3
     number of atoms/cell      =            2
     number of atomic types    =            1
     number of electrons       =         8.00
     number of Kohn-Sham states=           20
     kinetic-energy cutoff     =      20.0000  Ry
     charge density cutoff     =      80.0000  Ry
     convergence threshold     =      1.0E-08
     mixing beta               =       0.7000
     number of iterations used =            8  plain     mixing
     Exchange-correlation      = SLA PW PBX PBC ( 1  4  3  4 0 0)
     Non magnetic calculation with spin-orbit

     celldm(1)=   8.017429  celldm(2)=   0.000000  celldm(3)=   0.000000
     celldm(4)=   0.000000  celldm(5)=   0.000000  celldm(6)=   0.000000

     crystal axes: (cart. coord. in units of alat)
               a(1) = (   0.000000   0.707107   0.707107 )
               a(2) = (   0.707107   0.000000   0.707107 )
               a(3) = (   0.707107   0.707107   0.000000 )

     reciprocal axes: (cart. coord. in units 2 pi/alat)
               b(1) = ( -0.707107  0.707107  0.707107 )
               b(2) = (  0.707107 -0.707107  0.707107 )
               b(3) = (  0.707107  0.707107 -0.707107 )

     PseudoPot. # 1 for Si read from file:
     ./Si.rel-pbe-n-kjpaw_psl.0.1.UPF
     MD5 check sum: 67eb1bc5c689d7b48afd963eedacb1f1
     Pseudo is Projector augmented-wave + core cor, Zval =  4.0
     Generated using "atomic" code by A. Dal Corso v.5.0.2 svn rev. 9415
     Shape of augmentation charge: PSQ
     Using radial grid of 1141 points,  6 beta functions with:
                l(1) =   0
                l(2) =   0
                l(3) =   1
                l(4) =   1
                l(5) =   1
                l(6) =   1
     Q(r) pseudized with 0 coefficients

     atomic species   valence    mass     pseudopotential
        Si             4.00    27.97693     Si( 1.00)

     12 Sym. Ops., with inversion, found

   Cartesian axes

     site n.     atom                  positions (alat units)
         1           Si  tau(   1) = (  -0.1767484  -0.1767484  -0.1767484  )
         2           Si  tau(   2) = (   0.1767484   0.1767484   0.1767484  )

     number of k points=   116

     Number of k-points >= 100: set verbosity='high' to print them.

     Check: negative/imaginary core charge=   -0.000009    0.000000

     Initial potential from superposition of free atoms

     starting charge    7.99890, renormalised to    8.00000
     Starting wfcs are   16 randomized atomic wfcs +    4 random wfcs
     Checking if some PAW data can be deallocated...

     Self-consistent Calculation

     iteration #  1     ecut=    20.00 Ry     beta= 0.70
     Davidson diagonalization with overlap
     c_bands:  1 eigenvalues not converged
     c_bands:  2 eigenvalues not converged
     c_bands:  2 eigenvalues not converged
     c_bands:  1 eigenvalues not converged
     c_bands:  1 eigenvalues not converged
     c_bands:  1 eigenvalues not converged
     c_bands:  1 eigenvalues not converged
     c_bands:  1 eigenvalues not converged
     c_bands:  1 eigenvalues not converged
     c_bands:  2 eigenvalues not converged
     c_bands:  2 eigenvalues not converged
     c_bands:  2 eigenvalues not converged
     c_bands:  1 eigenvalues not converged
     c_bands:  1 eigenvalues not converged
     c_bands:  1 eigenvalues not converged
     c_bands:  2 eigenvalues not converged
     c_bands:  1 eigenvalues not converged
     ethr =  1.00E-06,  avg # of iterations = 15.5

[...]

     total energy              =     -93.41382020 Ry
     Harris-Foulkes estimate   =     -93.41382020 Ry
     estimated scf accuracy    <       0.00000002 Ry

     iteration #  6     ecut=    20.00 Ry     beta= 0.70
     Davidson diagonalization with overlap
     ethr =  2.59E-10,  avg # of iterations =  2.0

     End of self-consistent calculation

     Number of k-points >= 100: set verbosity='high' to print the bands.

     highest occupied, lowest unoccupied level (ev):     3.4947    3.7661

!    total energy              =     -93.41382020 Ry
     Harris-Foulkes estimate   =     -93.41382020 Ry
     estimated scf accuracy    <          8.8E-11 Ry

     total all-electron energy =     -1160.095878 Ry

     The total energy is the sum of the following terms:

     one-electron contribution =       3.55554134 Ry
     hartree contribution      =       1.37964851 Ry
     xc contribution           =     -11.93628869 Ry
     ewald contribution        =     -15.20304391 Ry
     one-center paw contrib.   =     -71.20967746 Ry

     convergence has been achieved in   6 iterations

     Forces acting on atoms (cartesian axes, Ry/au):

     atom    1 type  1   force =    -0.00007224   -0.00007224   -0.00007224
     atom    2 type  1   force =     0.00007224    0.00007224    0.00007224

     Total force =     0.000177     Total SCF correction =     0.000000

     Computing stress (Cartesian axis) and pressure

     Message from routine stres:
     noncollinear stress + GGA not implemented

     Writing output data file qe.save/

     General routines

     Parallel routines

   This run was terminated on:  13:44:25   6Jul2020

   JOB DONE.

Converting results to RKF