     Program PWSCF v.7.5 starts on 22Sep2025 at 13:59:14
        Git branch: dftd4
        Last git commit: 234d1ec8279940b25d9bc7437067330cd0755cf9
        Last git commit date: Fri Jul 18 14:39:03 2025 +0300
        Last git commit subject: Merge branch 'develop' of gitlab.com:miro.ilias/q-

     Waiting for input...
     Reading input from standard input
Warning: card &CELL ignored
Warning: card &FCP ignored
Warning: card &RISM ignored

     Current dimensions of program PWSCF are:
     Max number of different atomic species (ntypx) = 10
     Max number of k-points (npk) =  40000
     Max angular momentum in pseudopotentials (lmaxx) =  4
     Message from routine set_vdw_corr:
     entering vdw_corr = DFT-D3
     Message from routine setup:
     using ibrav=0 with symmetry is DISCOURAGED, use correct ibrav instead

     R & G space division:  proc/nbgrp/npool/nimage =       8
     Subspace diagonalization in iterative solution of the eigenvalue problem:
     a serial algorithm will be used

     Using Slab Decomposition

     bravais-lattice index     =            0
     lattice parameter (alat)  =       9.2823  a.u.
     unit-cell volume          =    2115.1209 (a.u.)^3
     number of atoms/cell      =            9
     number of atomic types    =            2
     number of electrons       =        52.00
     number of Kohn-Sham states=           31
     kinetic-energy cutoff     =      65.0000  Ry
     charge density cutoff     =     260.0000  Ry
     scf convergence threshold =      1.0E-10
     mixing beta               =       0.7000
     number of iterations used =            8  plain     mixing
     energy convergence thresh.=      1.0E-08
     force convergence thresh. =      1.0E-04
     Exchange-correlation= PBE
                           (   1   4   3   4   0   0   0)
     nstep                     =           50

     celldm(1)=   9.282335  celldm(2)=   0.000000  celldm(3)=   0.000000
     celldm(4)=   0.000000  celldm(5)=   0.000000  celldm(6)=   0.000000

     crystal axes: (cart. coord. in units of alat)
               a(1) = (   1.000000   0.000000   0.000000 )
               a(2) = (  -0.500000   0.866025   0.000000 )
               a(3) = (   0.000000   0.000000   3.053746 )

     reciprocal axes: (cart. coord. in units 2 pi/alat)
               b(1) = (  1.000000  0.577350 -0.000000 )
               b(2) = (  0.000000  1.154701  0.000000 )
               b(3) = (  0.000000 -0.000000  0.327467 )

     PseudoPot. # 1 for C  read from file:
     ./C.upf
     MD5 check sum: 34a24e64c0a39f27c6c36b90a16ac686
     Pseudo is Norm-conserving + core correction, Zval =  4.0
     Generated using ONCVPSP code by D. R. Hamann
     Using radial grid of 1248 points,  4 beta functions with:
                l(1) =   0
                l(2) =   0
                l(3) =   1
                l(4) =   1

     PseudoPot. # 2 for Hg read from file:
     ./Hg.upf
     MD5 check sum: d4c424953d0a1bff05b6a983cb73b115
     Pseudo is Norm-conserving + core correction, Zval = 20.0
     Generated using ONCVPSP code by D. R. Hamann
     Using radial grid of 1262 points,  7 beta functions with:
                l(1) =   0
                l(2) =   0
                l(3) =   1
                l(4) =   1
                l(5) =   2
                l(6) =   2
                l(7) =   3

     atomic species   valence    mass     pseudopotential
     C                 4.00    12.01100     C ( 1.00)
     Hg               20.00   200.59200     Hg( 1.00)

      6 Sym. Ops. (no inversion) found ( 4 have fractional translation)

   Cartesian axes

     site n.     atom                  positions (alat units)
         1        C      tau(   1) = (   0.0000000   0.0000096   1.5119700  )
         2        C      tau(   2) = (  -0.2499917   0.4330079   1.5119700  )
         3        C      tau(   3) = (   0.5000000   0.0000000   1.5126067  )
         4        C      tau(   4) = (   0.2499916   0.4330079   1.5119700  )
         5        C      tau(   5) = (   0.2499928   0.1443417   1.5122979  )
         6        C      tau(   6) = (  -0.0000001   0.5773419   1.5122979  )
         7        C      tau(   7) = (   0.7500072   0.1443417   1.5122979  )
         8        C      tau(   8) = (   0.4999999   0.5773502   1.5117386  )
         9        Hg     tau(   9) = (   0.4999999   0.5773502   2.2554563  )

     DFT-D3 Dispersion Correction (3-body terms):
       Reference C6 values for interpolation:

         atom   Coordination number   C6
         C          0.000            98.23
         C          0.987            86.49
         C          1.998            58.72
         C          2.999            51.56
         C          3.984            36.41
         Hg         0.000           724.15
         Hg         1.990           597.72

       Values used:

         atom   Coordination number  R0_AB[au]  C6      C8
         C          3.332            2.750     47.90   1385.21
         C          3.332            2.750     47.90   1385.21
         C          3.327            2.750     48.01   1388.45
         C          3.332            2.750     47.90   1385.21
         C          3.328            2.750     47.99   1387.92
         C          3.328            2.750     47.99   1387.92
         C          3.328            2.750     47.99   1387.92
         C          3.343            2.750     47.66   1378.46
         Hg         0.141            3.175    724.15  72691.39

         Molecular C6 ( Ry / a.u.^6 ) =      6734.07

     number of k points=     2  Gaussian smearing, width (Ry)=  0.0100
                       cart. coord. in units 2pi/alat
        k(    1) = (   0.0000000   0.0000000   0.0000000), wk =   0.5000000
        k(    2) = (   0.0000000  -0.5773503   0.0000000), wk =   1.5000000

     Initial potential from superposition of free atoms

     starting charge      51.9996, renormalised to      52.0000

     negative rho (up, down):  1.553E-04 0.000E+00
     Starting wfcs are   42 randomized atomic wfcs

     Self-consistent Calculation

     iteration #  1     ecut=    65.00 Ry     beta= 0.70
     Davidson diagonalization with overlap
     ethr =  1.00E-02,  avg # of iterations =  3.5

     negative rho (up, down):  9.302E-06 0.000E+00

     total energy              =    -428.16029340 Ry
     estimated scf accuracy    <       0.80933744 Ry

[...]

     End of self-consistent calculation

          k = 0.0000 0.0000 0.0000 ( 18643 PWs)   bands (ev):

  -118.0181 -66.3537 -66.3537 -66.3530 -23.8720 -18.5772 -18.5761 -18.5760
   -17.5765 -17.5762 -17.5762 -11.9665 -10.7132 -10.7132 -10.7132  -9.7286
    -9.7231  -9.7231  -9.6965  -9.6965  -7.2774  -7.2774  -7.1624  -6.6194
    -6.6194  -6.5994  -2.5470  -2.5470  -2.5440  -1.3394   0.5960

[...]

     the Fermi energy is    -5.5991 ev

!    total energy              =    -428.34713324 Ry
     estimated scf accuracy    <          1.2E-11 Ry
     smearing contrib. (-TS)   =      -0.00000000 Ry
     internal energy E=F+TS    =    -428.34713324 Ry

     The total energy is F=E-TS. E is the sum of the following terms:
     one-electron contribution =   -1728.82105631 Ry
     hartree contribution      =     860.12992033 Ry
     xc contribution           =     -89.16165075 Ry
     ewald contribution        =     529.54638956 Ry
     DFT-D3 Dispersion         =      -0.04073608 Ry

     convergence has been achieved in  12 iterations

     Forces acting on atoms (cartesian axes, Ry/au):

     atom    1 type  1   force =     0.00000000   -0.00002387    0.00088967
     atom    2 type  1   force =    -0.00002067    0.00001193    0.00088967
     atom    3 type  1   force =     0.00000000    0.00000000    0.00062758
     atom    4 type  1   force =     0.00002067    0.00001193    0.00088967
     atom    5 type  1   force =    -0.00000144    0.00000083    0.00077414
     atom    6 type  1   force =     0.00000000   -0.00000166    0.00077414
     atom    7 type  1   force =     0.00000144    0.00000083    0.00077414
     atom    8 type  1   force =     0.00000000    0.00000000    0.00032724
     atom    9 type  2   force =     0.00000000    0.00000000   -0.00594626

     Total force =     0.006327     Total SCF correction =     0.000027

     Computing stress (Cartesian axis) and pressure

          total   stress  (Ry/bohr**3)                   (kbar)     P=       -4.28
  -0.00000833  -0.00000000   0.00000000           -1.22       -0.00        0.00
  -0.00000000  -0.00000833   0.00000000           -0.00       -1.22        0.00
   0.00000000  -0.00000000  -0.00007053            0.00       -0.00      -10.38

     BFGS Geometry Optimization
     Energy error            =      4.0E-05 Ry
     Gradient error          =      5.9E-03 Ry/Bohr

     number of scf cycles    =   1
     number of bfgs steps    =   0

     energy             new  =    -428.3471332411 Ry

     new trust radius        =       0.0059462633 bohr
     new conv_thr            =            1.0E-10 Ry

ATOMIC_POSITIONS (angstrom)
C                0.0000000000        0.0000344277        7.4272676177
C               -1.2279704341        2.1269410203        7.4272676177
C                2.4560000900        0.0000000000        7.4302565616
C                1.2279698681        2.1269410203        7.4272676177
C                1.2279637457        0.7090070376        7.4288173317
C               -0.0000003780        2.8359024617        7.4288173317
C                3.6840360983        0.7090070376        7.4288173317
C                2.4559997120        2.8359442390        7.4258333759
Hg               2.4559997120        2.8359442390       11.0756552378

     Writing config-only to output data dir ./tmp/c_hg.save/ :
     XML data file
     NEW-OLD atomic charge density approx. for the potential

[...]

     Threshold (ethr) on eigenvalues was too large:
     Diagonalizing with lowered threshold

     Davidson diagonalization with overlap
     ethr =  1.33E-09,  avg # of iterations =  4.0

[...]

     Energy error            =      4.0E-05 Ry
     Gradient error          =      5.9E-03 Ry/Bohr

[...]

     energy             old  =    -428.3471332411 Ry
     energy             new  =    -428.3471730340 Ry

     CASE: energy            _new < energy            _old

     WARNING: bfgs curvature condition failed, Theta= 0.810
     new trust radius        =       0.0065408896 bohr
     new conv_thr            =            5.9E-11 Ry

[...]

     negative rho (up, down):  1.501E-08 0.000E+00

[...]

     Total force =     0.000074     Total SCF correction =     0.000007

[...]

     number of scf cycles    =  16
     number of bfgs steps    =  15

     energy             old  =    -428.3488609908 Ry
     energy             new  =    -428.3488610044 Ry

     CASE: energy            _new < energy            _old

     new trust radius        =       0.0001834419 bohr
     new conv_thr            =            1.0E-12 Ry

ATOMIC_POSITIONS (angstrom)
C               -0.0000000000        0.0001337230        7.4560492306
C               -1.2278844418        2.1268913726        7.4560492306
C                2.4560000900        0.0000000000        7.4629339203
C                1.2278838758        2.1268913726        7.4560492306
C                1.2279295486        0.7090267814        7.4600594963
C               -0.0000003780        2.8358629742        7.4600594963
C                3.6840702954        0.7090267814        7.4600594963
C                2.4559997120        2.8359442390        7.4506812453
Hg               2.4559997120        2.8359442390       10.8380586774

     Writing config-only to output data dir ./tmp/c_hg.save/ :
     XML data file
     NEW-OLD atomic charge density approx. for the potential

     Self-consistent Calculation

[...]

     Threshold (ethr) on eigenvalues was too large:
     Diagonalizing with lowered threshold

     Davidson diagonalization with overlap
     ethr =  1.45E-10,  avg # of iterations =  4.0

[...]

     total energy              =    -428.34886101 Ry
     estimated scf accuracy    <          1.3E-11 Ry

     iteration #  5     ecut=    65.00 Ry     beta= 0.70
     Davidson diagonalization with overlap
     ethr =  1.00E-13,  avg # of iterations =  1.0

     End of self-consistent calculation

[...]

          k = 0.0000-0.5774 0.0000 ( 18732 PWs)   bands (ev):

  -118.0011 -66.3369 -66.3365 -66.3354 -22.5112 -22.5082 -19.6720 -19.6705
   -14.9297 -14.9292 -13.3870 -13.3862 -11.8133 -11.8130 -10.4183 -10.3385
    -9.7266  -9.6926  -9.6751  -9.6571  -9.6264  -9.4335  -9.4328  -7.1686
    -7.1150  -6.3632  -1.9833  -1.4981  -1.4937  -0.1079   0.6403

     the Fermi energy is    -5.5843 ev

!    total energy              =    -428.34886101 Ry
     estimated scf accuracy    <          9.7E-13 Ry
     smearing contrib. (-TS)   =      -0.00000000 Ry
     internal energy E=F+TS    =    -428.34886101 Ry

     The total energy is F=E-TS. E is the sum of the following terms:
     one-electron contribution =   -1838.88510522 Ry
     hartree contribution      =     915.04584402 Ry
     xc contribution           =     -89.16588204 Ry
     ewald contribution        =     584.70014030 Ry
     DFT-D3 Dispersion         =      -0.04385807 Ry

     convergence has been achieved in   5 iterations

     Forces acting on atoms (cartesian axes, Ry/au):

     atom    1 type  1   force =     0.00000000   -0.00000275    0.00000663
     atom    2 type  1   force =    -0.00000238    0.00000137    0.00000663
     atom    3 type  1   force =     0.00000000    0.00000000   -0.00001564
     atom    4 type  1   force =     0.00000238    0.00000137    0.00000663
     atom    5 type  1   force =    -0.00000073    0.00000042    0.00000643
     atom    6 type  1   force =     0.00000000   -0.00000085    0.00000643
     atom    7 type  1   force =     0.00000073    0.00000042    0.00000643
     atom    8 type  1   force =     0.00000000    0.00000000   -0.00002554
     atom    9 type  2   force =     0.00000000    0.00000000    0.00000202

     Total force =     0.000034     Total SCF correction =     0.000007
     SCF correction compared to forces is large: reduce conv_thr to get better values

     Computing stress (Cartesian axis) and pressure

          total   stress  (Ry/bohr**3)                   (kbar)     P=       -3.79
  -0.00000878  -0.00000000   0.00000000           -1.29       -0.00        0.00
  -0.00000000  -0.00000878   0.00000000           -0.00       -1.29        0.00
   0.00000000   0.00000000  -0.00005966            0.00        0.00       -8.78

     Energy error            =      5.2E-09 Ry
     Gradient error          =      2.6E-05 Ry/Bohr

     bfgs converged in  17 scf cycles and  16 bfgs steps
     (criteria: energy <  1.0E-08 Ry, force <  1.0E-04 Ry/Bohr)

     End of BFGS Geometry Optimization

     Final energy             =    -428.3488610096 Ry

     File ./tmp/c_hg.bfgs deleted, as requested
Begin final coordinates

ATOMIC_POSITIONS (angstrom)
C               -0.0000000000        0.0001337230        7.4560492306
C               -1.2278844418        2.1268913726        7.4560492306
C                2.4560000900        0.0000000000        7.4629339203
C                1.2278838758        2.1268913726        7.4560492306
C                1.2279295486        0.7090267814        7.4600594963
C               -0.0000003780        2.8358629742        7.4600594963
C                3.6840702954        0.7090267814        7.4600594963
C                2.4559997120        2.8359442390        7.4506812453
Hg               2.4559997120        2.8359442390       10.8380586774
End final coordinates

     Writing all to output data dir ./tmp/c_hg.save/ :
     XML data file, charge density, pseudopotentials, collected wavefunctions

     General routines

     Parallel routines

   This run was terminated on:  13:59:45  22Sep2025

   JOB DONE.