     Program PWSCF v.7.3.1 starts on 14Mar2025 at 14:33:15

     Waiting for input...
     Reading input from standard input

     Current dimensions of program PWSCF are:
     Max number of different atomic species (ntypx) = 10
     Max number of k-points (npk) =  40000
     Max angular momentum in pseudopotentials (lmaxx) =  4
     Message from routine find_sym:
     Not a group! Trying with lower acceptance parameter...
     Message from routine find_sym:
     Symmetry operations form a group

     R & G space division:  proc/nbgrp/npool/nimage =       4
     Subspace diagonalization in iterative solution of the eigenvalue problem:
     a serial algorithm will be used

     Using Slab Decomposition

     bravais-lattice index     =            0
     lattice parameter (alat)  =       8.2509  a.u.
     unit-cell volume          =     551.8937 (a.u.)^3
     number of atoms/cell      =            3
     number of atomic types    =            1
     number of electrons       =        48.00
     number of Kohn-Sham states=           29
     kinetic-energy cutoff     =      43.0000  Ry
     charge density cutoff     =     172.0000  Ry
     scf convergence threshold =      6.0E-10
     mixing beta               =       0.4000
     number of iterations used =            8  plain     mixing
     energy convergence thresh.=      3.0E-05
     force convergence thresh. =      1.0E-04
     press convergence thresh. =      5.0E-01
     Exchange-correlation= PBE
                           (   1   4   3   4   0   0   0)
     nstep                     =           50

     celldm(1)=   8.250922  celldm(2)=   0.000000  celldm(3)=   0.000000
     celldm(4)=   0.000000  celldm(5)=   0.000000  celldm(6)=   0.000000

     crystal axes: (cart. coord. in units of alat)
               a(1) = (   1.000000   0.000000   0.000000 )
               a(2) = (  -0.500000   0.866025   0.000000 )
               a(3) = (   0.000000   0.000000   1.134533 )

     reciprocal axes: (cart. coord. in units 2 pi/alat)
               b(1) = (  1.000000  0.577350  0.000000 )
               b(2) = (  0.000000  1.154701  0.000000 )
               b(3) = (  0.000000  0.000000  0.881420 )

     PseudoPot. # 1 for Se read from file:
     ./Se.upf
     MD5 check sum: 3cc46b3642295b3f4fdae63b742ce36d
     Pseudo is Norm-conserving + core correction, Zval = 16.0
     Generated using ONCVPSP code by D. R. Hamann
     Using radial grid of 1214 points,  6 beta functions with:
                l(1) =   0
                l(2) =   0
                l(3) =   1
                l(4) =   1
                l(5) =   2
                l(6) =   2

     atomic species   valence    mass     pseudopotential
     Se               16.00    78.96000     Se( 1.00)

     No symmetry found

   Cartesian axes

     site n.     atom                  positions (alat units)
         1        Se     tau(   1) = (   0.2254000   0.0000000   0.3781740  )
         2        Se     tau(   2) = (  -0.1127000   0.1952021   0.7563594  )
         3        Se     tau(   3) = (   0.3873000   0.6708233   0.0000038  )

     number of k points=   650  Marzari-Vanderbilt smearing, width (Ry)=  0.0200

     Number of k-points >= 100: set verbosity='high' to print them.

     Initial potential from superposition of free atoms

     starting charge      47.9998, renormalised to      48.0000

     negative rho (up, down):  1.026E-03 0.000E+00
     Starting wfcs are   27 randomized atomic wfcs +    2 random wfcs

     Self-consistent Calculation

     iteration #  1     ecut=    43.00 Ry     beta= 0.40
     Davidson diagonalization with overlap
     ethr =  1.00E-02,  avg # of iterations =  5.6

     negative rho (up, down):  5.857E-04 0.000E+00

     WARNING: integrated charge=    48.00001794, expected=    48.00000000

     total energy              =    -718.99100719 Ry
     estimated scf accuracy    <       1.14853878 Ry

[...]

     End of self-consistent calculation

     Number of k-points >= 100: set verbosity='high' to print the bands.

     the Fermi energy is     8.0646 ev

[...]

!    total energy              =    -718.86677459 Ry
     estimated scf accuracy    <          3.8E-11 Ry
     smearing contrib. (-TS)   =       0.00000404 Ry
     internal energy E=F+TS    =    -718.86677862 Ry

     The total energy is F=E-TS. E is the sum of the following terms:
     one-electron contribution =    -430.05062142 Ry
     hartree contribution      =     219.45763719 Ry
     xc contribution           =    -142.13481058 Ry
     ewald contribution        =    -366.13898380 Ry

     convergence has been achieved in  12 iterations

     Forces acting on atoms (cartesian axes, Ry/au):

     atom    1 type  1   force =     0.01214950   -0.00000691    0.00085135
     atom    2 type  1   force =    -0.00608073    0.01051573   -0.00084815
     atom    3 type  1   force =    -0.00606877   -0.01050882   -0.00000319

     Total force =     0.021068     Total SCF correction =     0.000013

     Computing stress (Cartesian axis) and pressure

          total   stress  (Ry/bohr**3)                   (kbar)     P=    -9888.41
  -0.06730155   0.00000002   0.00000014        -9900.40        0.00        0.02
   0.00000002  -0.06730156  -0.00000005            0.00    -9900.40       -0.01
   0.00000014  -0.00000005  -0.06705702            0.02       -0.01    -9864.43

     BFGS Geometry Optimization
     Energy error            =      0.0E+00 Ry
     Gradient error          =      1.2E-02 Ry/Bohr
     Cell gradient error     =      9.9E+03 kbar

     number of scf cycles    =   1
     number of bfgs steps    =   0

     enthalpy           new  =    -718.8667745869 Ry

     new trust radius        =       0.5000000000 bohr
     new conv_thr            =       0.0000000006 Ry

     new unit-cell volume =    393.95584 a.u.^3 (    58.37823 Ang^3 )
     density =      6.73793 g/cm^3

CELL_PARAMETERS (angstrom)
   3.901560766   0.000000151   0.000000999
  -1.950780252   3.378850619  -0.000000788
   0.000001133  -0.000000378   4.428366614

ATOMIC_POSITIONS (crystal)
Se               0.2254931023       -0.0000000612        0.3333357522
Se              -0.0000000726        0.2254930794        0.6666642694
Se               0.7745069703        0.7745069818        0.0000033117

     Writing config-only to output data dir ./pwscf.save/ :
     XML data file
     NEW-OLD atomic charge density approx. for the potential
     extrapolated charge   48.00027, renormalised to   48.00000

[...]

     iteration #  1     ecut=    43.00 Ry     beta= 0.40
     Davidson diagonalization with overlap
     c_bands:  1 eigenvalues not converged
     c_bands:  1 eigenvalues not converged
     c_bands:  1 eigenvalues not converged
     c_bands:  1 eigenvalues not converged
     c_bands:  1 eigenvalues not converged
     c_bands:  1 eigenvalues not converged
     c_bands:  1 eigenvalues not converged
     c_bands:  1 eigenvalues not converged
     c_bands:  1 eigenvalues not converged
     c_bands:  1 eigenvalues not converged
     c_bands:  1 eigenvalues not converged
     c_bands:  1 eigenvalues not converged
     c_bands:  1 eigenvalues not converged
     c_bands:  1 eigenvalues not converged
     c_bands:  1 eigenvalues not converged
     c_bands:  1 eigenvalues not converged
     c_bands:  1 eigenvalues not converged
     c_bands:  1 eigenvalues not converged
     c_bands:  1 eigenvalues not converged
     c_bands:  1 eigenvalues not converged
     c_bands:  1 eigenvalues not converged
     c_bands:  1 eigenvalues not converged
     ethr =  1.00E-06,  avg # of iterations = 12.0

[...]

     WARNING: integrated charge=    48.00351464, expected=    48.00000000

[...]

     Energy error            =      7.1E+00 Ry
     Gradient error          =      2.3E-01 Ry/Bohr
     Cell gradient error     =      3.1E+03 kbar

[...]

     enthalpy           old  =    -718.8667745869 Ry
     enthalpy           new  =    -725.9655960156 Ry

     CASE: enthalpy          _new < enthalpy          _old

[...]

     Writing config-only to output data dir ./pwscf.save/ :
     XML data file
     NEW-OLD atomic charge density approx. for the potential

     negative rho (up, down):  2.316E-03 0.000E+00
     extrapolated charge   48.00351, renormalised to   48.00000

[...]

     Threshold (ethr) on eigenvalues was too large:
     Diagonalizing with lowered threshold

     Davidson diagonalization with overlap
     ethr =  1.77E-08,  avg # of iterations =  3.8

[...]

     number of scf cycles    =  10
     number of bfgs steps    =   9

     enthalpy           old  =    -727.0093783291 Ry
     enthalpy           new  =    -727.0094613443 Ry

     CASE: enthalpy          _new < enthalpy          _old

     new trust radius        =       0.0009168397 bohr
     new conv_thr            =            1.7E-11 Ry

     new unit-cell volume =    306.52145 a.u.^3 (    45.42179 Ang^3 )
     density =      8.65991 g/cm^3

[...]

ATOMIC_POSITIONS (crystal)
Se               0.3333561919       -0.0000005904        0.3333593837
Se              -0.0000006209        0.3333561270        0.6666428519
Se               0.6666444290        0.6666444634        0.0000010977

     Writing config-only to output data dir ./pwscf.save/ :
     XML data file
     NEW-OLD atomic charge density approx. for the potential

[...]

     Threshold (ethr) on eigenvalues was too large:
     Diagonalizing with lowered threshold

     Davidson diagonalization with overlap
     ethr =  5.86E-10,  avg # of iterations =  4.3

[...]

     Energy error            =      8.6E-07 Ry
     Gradient error          =      4.1E-05 Ry/Bohr
     Cell gradient error     =      5.0E-01 kbar

     bfgs converged in  11 scf cycles and  10 bfgs steps
     (criteria: energy <  3.0E-05 Ry, force <  1.0E-04 Ry/Bohr, cell <  5.0E-01 kbar)

     End of BFGS Geometry Optimization

     Final enthalpy           =    -727.0094622040 Ry

     File ./pwscf.bfgs deleted, as requested
Begin final coordinates
     new unit-cell volume =    306.52145 a.u.^3 (    45.42179 Ang^3 )
     density =      8.65991 g/cm^3

CELL_PARAMETERS (angstrom)
   3.603520871  -0.000147928  -0.000133859
  -1.801888545   3.120617130   0.000156673
  -0.000181059   0.000139101   4.039308552

ATOMIC_POSITIONS (crystal)
Se               0.3333561919       -0.0000005904        0.3333593837
Se              -0.0000006209        0.3333561270        0.6666428519
Se               0.6666444290        0.6666444634        0.0000010977
End final coordinates

     Writing config-only to output data dir ./pwscf.save/ :
     XML data file

     Final scf calculation at the relaxed structure.
     The G-vectors are recalculated for the final unit cell
     Results may differ from those at the preceding step.

     Using Slab Decomposition

     bravais-lattice index     =            0
     lattice parameter (alat)  =       8.2509  a.u.
     unit-cell volume          =     306.5214 (a.u.)^3
     number of atoms/cell      =            3
     number of atomic types    =            1
     number of electrons       =        48.00
     number of Kohn-Sham states=           29
     kinetic-energy cutoff     =      43.0000  Ry
     charge density cutoff     =     172.0000  Ry
     scf convergence threshold =      1.7E-11
     mixing beta               =       0.4000
     number of iterations used =            8  plain     mixing
     press convergence thresh. =      5.0E-01
     Exchange-correlation= PBE
                           (   1   4   3   4   0   0   0)

     celldm(1)=   8.250922  celldm(2)=   0.000000  celldm(3)=   0.000000
     celldm(4)=   0.000000  celldm(5)=   0.000000  celldm(6)=   0.000000

     crystal axes: (cart. coord. in units of alat)
               a(1) = (   0.825322  -0.000034  -0.000031 )
               a(2) = (  -0.412690   0.714722   0.000036 )
               a(3) = (  -0.000041   0.000032   0.925131 )

     reciprocal axes: (cart. coord. in units 2 pi/alat)
               b(1) = (  1.211677  0.699639  0.000030 )
               b(2) = (  0.000057  1.399179 -0.000048 )
               b(3) = (  0.000040 -0.000031  1.080928 )

     PseudoPot. # 1 for Se read from file:
     ./Se.upf
     MD5 check sum: 3cc46b3642295b3f4fdae63b742ce36d
     Pseudo is Norm-conserving + core correction, Zval = 16.0
     Generated using ONCVPSP code by D. R. Hamann
     Using radial grid of 1214 points,  6 beta functions with:
                l(1) =   0
                l(2) =   0
                l(3) =   1
                l(4) =   1
                l(5) =   2
                l(6) =   2

     atomic species   valence    mass     pseudopotential
     Se               16.00    78.96000     Se( 1.00)

     No symmetry found

   Cartesian axes

     site n.     atom                  positions (alat units)
         1        Se     tau(   1) = (   0.2751126  -0.0000011   0.3083910  )
         2        Se     tau(   2) = (  -0.1376010   0.2382780   0.6167442  )
         3        Se     tau(   3) = (   0.2750786   0.4764426   0.0000045  )

     number of k points=   650  Marzari-Vanderbilt smearing, width (Ry)=  0.0200

     Number of k-points >= 100: set verbosity='high' to print them.

     Initial potential from superposition of free atoms

     starting charge      47.9998, renormalised to      48.0000

     negative rho (up, down):  9.967E-04 0.000E+00
     Starting wfcs are   27 randomized atomic wfcs +    2 random wfcs

     Self-consistent Calculation

     iteration #  1     ecut=    43.00 Ry     beta= 0.40
     Davidson diagonalization with overlap
     c_bands:  1 eigenvalues not converged
     c_bands:  1 eigenvalues not converged
     c_bands:  1 eigenvalues not converged
     c_bands:  1 eigenvalues not converged
     c_bands:  1 eigenvalues not converged
     c_bands:  1 eigenvalues not converged
     c_bands:  1 eigenvalues not converged
     c_bands:  1 eigenvalues not converged
     c_bands:  1 eigenvalues not converged
     c_bands:  3 eigenvalues not converged
     c_bands:  1 eigenvalues not converged
     c_bands:  1 eigenvalues not converged
     c_bands:  1 eigenvalues not converged
     c_bands:  1 eigenvalues not converged
     c_bands:  1 eigenvalues not converged
     c_bands:  1 eigenvalues not converged
     c_bands:  1 eigenvalues not converged
     c_bands:  1 eigenvalues not converged
     c_bands:  1 eigenvalues not converged
     c_bands:  1 eigenvalues not converged
     c_bands:  1 eigenvalues not converged
     c_bands:  1 eigenvalues not converged
     c_bands:  1 eigenvalues not converged
     c_bands:  1 eigenvalues not converged
     c_bands:  1 eigenvalues not converged
     c_bands:  1 eigenvalues not converged
     c_bands:  1 eigenvalues not converged
     c_bands:  1 eigenvalues not converged
     c_bands:  1 eigenvalues not converged
     c_bands:  1 eigenvalues not converged
     c_bands:  1 eigenvalues not converged
     c_bands:  1 eigenvalues not converged
     c_bands:  1 eigenvalues not converged
     c_bands:  1 eigenvalues not converged
     c_bands:  1 eigenvalues not converged
     c_bands:  1 eigenvalues not converged
     c_bands:  1 eigenvalues not converged
     c_bands:  1 eigenvalues not converged
     c_bands:  1 eigenvalues not converged
     c_bands:  1 eigenvalues not converged
     c_bands:  1 eigenvalues not converged
     c_bands:  1 eigenvalues not converged
     c_bands:  1 eigenvalues not converged
     c_bands:  1 eigenvalues not converged
     c_bands:  1 eigenvalues not converged
     c_bands:  1 eigenvalues not converged
     c_bands:  1 eigenvalues not converged
     c_bands:  1 eigenvalues not converged
     c_bands:  3 eigenvalues not converged
     ethr =  1.00E-06,  avg # of iterations = 15.9

[...]

     negative rho (up, down):  4.227E-05 0.000E+00

[...]

     total energy              =    -718.61289802 Ry
     estimated scf accuracy    <          2.1E-11 Ry

     iteration # 14     ecut=    43.00 Ry     beta= 0.40
     Davidson diagonalization with overlap
     ethr =  1.00E-13,  avg # of iterations =  2.0

     End of self-consistent calculation

     Number of k-points >= 100: set verbosity='high' to print the bands.

     the Fermi energy is    19.0575 ev

!    total energy              =    -718.61289802 Ry
     estimated scf accuracy    <          1.1E-13 Ry
     smearing contrib. (-TS)   =      -0.00000596 Ry
     internal energy E=F+TS    =    -718.61289206 Ry

     The total energy is F=E-TS. E is the sum of the following terms:
     one-electron contribution =    -263.12351365 Ry
     hartree contribution      =     153.90083575 Ry
     xc contribution           =    -143.00173963 Ry
     ewald contribution        =    -466.38847452 Ry

     convergence has been achieved in  14 iterations

     Forces acting on atoms (cartesian axes, Ry/au):

     atom    1 type  1   force =    -0.00003928    0.00000090   -0.00047195
     atom    2 type  1   force =     0.00002044   -0.00003344    0.00047182
     atom    3 type  1   force =     0.00001884    0.00003254    0.00000013

     Total force =     0.000671     Total SCF correction =     0.000000

     Computing stress (Cartesian axis) and pressure

          total   stress  (Ry/bohr**3)                   (kbar)     P=   -17082.69
  -0.11590032   0.00000286  -0.00000277       -17049.53        0.42       -0.41
   0.00000286  -0.11589175  -0.00000081            0.42   -17048.26       -0.12
  -0.00000277  -0.00000081  -0.11658527           -0.41       -0.12   -17150.29

     Writing all to output data dir ./pwscf.save/ :
     XML data file, charge density, pseudopotentials, collected wavefunctions

     General routines

     Parallel routines

   This run was terminated on:  15:17:53  14Mar2025

   JOB DONE.

Time is Fri Mar 14 14:33:14 MSK 2025

Job user is SLURM_JOB_USER= milias
User job SLURM_JOB_NAME=tSe3ns has assigned ID SLURM_JOBID=10086159
This job was submitted from the computer SLURM_SUBMIT_HOST=space06.hydra.local
and from the home directory SLURM_SUBMIT_DIR:
/lustre/home/user/m/milias/work/projects/open-collection/theoretical_chemistry/software/quantum-espresso-ase/runs/tSe3-unit_cell/dip
Job is running on the cluster compute node: SLURM_CLUSTER_NAME=gvr
and is employing SLURM_JOB_NUM_NODES=1 node/nodes:
SLURM_JOB_NODELIST = n02p002
Job partition is SLURM_JOB_PARTITION=cascade

Number of allocated CPUs on each single node, SLURM_CPUS_ON_NODE=4 .

-rw-r--r-- 1 milias hybrilit 32 Mar 14 14:33 /lustre/home/user/m/milias/work/projects/open-collection/theoretical_chemistry/software/quantum-espresso-ase/runs/tSe3-unit_cell/dip/nodes.cascade.10086159
containing:
n02p002
n02p002
n02p002
n02p002
BTW, this node has total 96 CPUs available for an EXCLUSIVE job.

 loaded modules:
Currently Loaded Modulefiles:
  1) GVR/v1.0-1        3) BASE/1.0
  2) intel/v2021.1     4) Python/v3.10.13

Time is Fri Mar 14 14:33:15 MSK 2025

              total        used        free      shared  buff/cache   available
Mem:            187          60          46           0          80         125
Total:          191          61          49

 ldd  /lustre/home/user/m/milias/work/software/quantum-espresso/qe-7.3.1/bin/pw.x :
	linux-vdso.so.1 =>  (0x00007ffcf7aca000)
	libdl.so.2 => /lib64/libdl.so.2 (0x00002b7032f39000)
	librt.so.1 => /lib64/librt.so.1 (0x00002b703313d000)
	libpthread.so.0 => /lib64/libpthread.so.0 (0x00002b7033345000)
	libm.so.6 => /lib64/libm.so.6 (0x00002b7033561000)
	libiomp5.so => /cvmfs/hybrilit.jinr.ru/sw/slc7_x86-64/intel/v2021.1/compiler/2021.1.1/linux/compiler/lib/intel64_lin/libiomp5.so (0x00002b7033863000)
	libc.so.6 => /lib64/libc.so.6 (0x00002b7033c6a000)
	libgcc_s.so.1 => /lib64/libgcc_s.so.1 (0x00002b7034038000)
	/lib64/ld-linux-x86-64.so.2 (0x00002b7024fe4000)

 Current directory where this SLURM job is running /lustre/home/user/m/milias/work/projects/open-collection/theoretical_chemistry/software/quantum-espresso-ase/runs/tSe3-unit_cell/dip
 It has the disk space of (df -h) :
Filesystem                               Size  Used Avail Use% Mounted on
10.220.25.3@o2ib,10.220.25.4@o2ib:/home  650T  456T  195T  71% /lustre/home

 Running QE pw.x IntelMPI parallel job: