     Program PWSCF v.7.1 starts on 27Jul2023 at 22:32:56

     Waiting for input...
     Reading input from standard input

     Current dimensions of program PWSCF are:
     Max number of different atomic species (ntypx) = 10
     Max number of k-points (npk) =  40000
     Max angular momentum in pseudopotentials (lmaxx) =  4

     K-points division:     npool     =       4
     R & G space division:  proc/nbgrp/npool/nimage =      40
     Subspace diagonalization in iterative solution of the eigenvalue problem:
     a serial algorithm will be used

     Using Slab Decomposition

     bravais-lattice index     =            0
     lattice parameter (alat)  =       8.9933  a.u.
     unit-cell volume          =    2052.0453 (a.u.)^3
     number of atoms/cell      =           11
     number of atomic types    =            3
     number of electrons       =        50.00
     number of Kohn-Sham states=           30
     kinetic-energy cutoff     =      42.0000  Ry
     charge density cutoff     =     168.0000  Ry
     scf convergence threshold =      1.0E-06
     mixing beta               =       0.7000
     number of iterations used =            8  plain     mixing
     Exchange-correlation= PBE
                           (   1   4   3   4   0   0   0)

     celldm(1)=   8.993258  celldm(2)=   0.000000  celldm(3)=   0.000000
     celldm(4)=   0.000000  celldm(5)=   0.000000  celldm(6)=   0.000000

     crystal axes: (cart. coord. in units of alat)
               a(1) = (   0.999620  -0.027579   0.000000 )
               a(2) = (  -0.523694   0.909871   0.000000 )
               a(3) = (   0.000000   0.000000   3.151905 )

     reciprocal axes: (cart. coord. in units 2 pi/alat)
               b(1) = (  1.016523  0.585079 -0.000000 )
               b(2) = (  0.030812  1.116791 -0.000000 )
               b(3) = ( -0.000000 -0.000000  0.317268 )

     PseudoPot. # 1 for Si read from file:
     ./Si.upf
     MD5 check sum: 02fab3f35e82123ef5bf1cb05d5b1a5e
     Pseudo is Norm-conserving + core correction, Zval =  4.0
     Generated using ONCVPSP code by D. R. Hamann
     Using radial grid of 1510 points,  6 beta functions with:
                l(1) =   0
                l(2) =   0
                l(3) =   1
                l(4) =   1
                l(5) =   2
                l(6) =   2

     PseudoPot. # 2 for O  read from file:
     ./O.upf
     MD5 check sum: 3e3f909f7470e8921608ab6b1f57bbae
     Pseudo is Norm-conserving + core correction, Zval =  6.0
     Generated using ONCVPSP code by D. R. Hamann
     Using radial grid of  936 points,  5 beta functions with:
                l(1) =   0
                l(2) =   0
                l(3) =   1
                l(4) =   1
                l(5) =   2

     PseudoPot. # 3 for H  read from file:
     ./H.upf
     MD5 check sum: e96aa7e3e4a958db16958554ea960e2a
     Pseudo is Norm-conserving, Zval =  1.0
     Generated using ONCVPSP code by D. R. Hamann
     Using radial grid of 1166 points,  3 beta functions with:
                l(1) =   0
                l(2) =   0
                l(3) =   1

     atomic species   valence    mass     pseudopotential
        Si             4.00    27.97693     Si( 1.00)
        O              6.00    15.99491     O ( 1.00)
        H              1.00     1.00782     H ( 1.00)

     No symmetry found

   Cartesian axes

     site n.     atom                  positions (alat units)
         1           Si  tau(   1) = (  -0.1131856   0.0607643  -0.0212343  )
         2           Si  tau(   2) = (  -0.7280035   0.4296534  -0.3849121  )
         3           Si  tau(   3) = (   0.2999373  -0.4549696  -0.7668894  )
         4           O   tau(   4) = (  -0.2793059   0.1893730  -0.9835973  )
         5           O   tau(   5) = (  -0.3954654   0.3941413  -0.4699311  )
         6           O   tau(   6) = (   0.1509329   0.1059303  -0.2579513  )
         7           O   tau(   7) = (   0.2029600  -0.1574837  -0.9169284  )
         8           O   tau(   8) = (   0.6342643  -0.4291730  -0.6816218  )
         9           O   tau(   9) = (  -0.2518882  -0.2388668  -0.1433017  )
        10           H   tau(  10) = (   0.3677150  -0.0363238  -0.9566285  )
        11           H   tau(  11) = (  -0.1301369   0.0448356  -0.9685008  )

     number of k points=   504  Gaussian smearing, width (Ry)=  0.0200

     Number of k-points >= 100: set verbosity='high' to print them.

     Check: negative core charge=   -0.000200

     Initial potential from superposition of free atoms

     starting charge      49.9981, renormalised to      50.0000

     negative rho (up, down):  3.241E-03 0.000E+00
     Starting wfcs are   38 randomized atomic wfcs

     Self-consistent Calculation

     iteration #  1     ecut=    42.00 Ry     beta= 0.70
     Davidson diagonalization with overlap
     ethr =  1.00E-02,  avg # of iterations =  3.4

     negative rho (up, down):  7.100E-04 0.000E+00

     total energy              =    -225.31370316 Ry
     estimated scf accuracy    <       1.73860589 Ry

[...]

     negative rho (up, down):  7.773E-05 0.000E+00

[...]

     total energy              =    -226.01547763 Ry
     estimated scf accuracy    <       0.00000129 Ry

     iteration #  9     ecut=    42.00 Ry     beta= 0.70
     Davidson diagonalization with overlap
     ethr =  2.58E-09,  avg # of iterations =  3.2

     End of self-consistent calculation

     Number of k-points >= 100: set verbosity='high' to print the bands.

     the Fermi energy is    -0.8758 ev

!    total energy              =    -226.01547745 Ry
     estimated scf accuracy    <       0.00000075 Ry
     smearing contrib. (-TS)   =      -0.00000000 Ry
     internal energy E=F+TS    =    -226.01547745 Ry

     The total energy is F=E-TS. E is the sum of the following terms:
     one-electron contribution =    -910.99707825 Ry
     hartree contribution      =     470.40870979 Ry
     xc contribution           =     -61.16251180 Ry
     ewald contribution        =     275.73540280 Ry

     convergence has been achieved in   9 iterations

     Writing all to output data dir /lustre/ukt/milias/scratch/QEjob.main.N2.n160.jid5153980/qe.save/

     General routines

     Parallel routines

   This run was terminated on:  22:35: 4  27Jul2023

   JOB DONE.