     Program PWSCF v.7.1 starts on 27Jul2023 at 22:49: 3

     Waiting for input...
     Reading input from standard input

     Current dimensions of program PWSCF are:
     Max number of different atomic species (ntypx) = 10
     Max number of k-points (npk) =  40000
     Max angular momentum in pseudopotentials (lmaxx) =  4

     K-points division:     npool     =       4
     R & G space division:  proc/nbgrp/npool/nimage =      40
     Subspace diagonalization in iterative solution of the eigenvalue problem:
     a serial algorithm will be used

     Using Slab Decomposition

     bravais-lattice index     =            0
     lattice parameter (alat)  =       8.9933  a.u.
     unit-cell volume          =    2052.0453 (a.u.)^3
     number of atoms/cell      =           11
     number of atomic types    =            3
     number of electrons       =        50.00
     number of Kohn-Sham states=           30
     kinetic-energy cutoff     =      42.0000  Ry
     charge density cutoff     =     168.0000  Ry
     scf convergence threshold =      1.0E-06
     mixing beta               =       0.7000
     number of iterations used =            8  plain     mixing
     energy convergence thresh.=      1.0E-04
     force convergence thresh. =      1.0E-03
     press convergence thresh. =      5.0E-01
     Exchange-correlation= PBE
                           (   1   4   3   4   0   0   0)
     nstep                     =           50

     celldm(1)=   8.993258  celldm(2)=   0.000000  celldm(3)=   0.000000
     celldm(4)=   0.000000  celldm(5)=   0.000000  celldm(6)=   0.000000

     crystal axes: (cart. coord. in units of alat)
               a(1) = (   0.999620  -0.027579   0.000000 )
               a(2) = (  -0.523694   0.909871   0.000000 )
               a(3) = (   0.000000   0.000000   3.151905 )

     reciprocal axes: (cart. coord. in units 2 pi/alat)
               b(1) = (  1.016523  0.585079 -0.000000 )
               b(2) = (  0.030812  1.116791 -0.000000 )
               b(3) = ( -0.000000 -0.000000  0.317268 )

     PseudoPot. # 1 for Si read from file:
     ./Si.upf
     MD5 check sum: 02fab3f35e82123ef5bf1cb05d5b1a5e
     Pseudo is Norm-conserving + core correction, Zval =  4.0
     Generated using ONCVPSP code by D. R. Hamann
     Using radial grid of 1510 points,  6 beta functions with:
                l(1) =   0
                l(2) =   0
                l(3) =   1
                l(4) =   1
                l(5) =   2
                l(6) =   2

     PseudoPot. # 2 for O  read from file:
     ./O.upf
     MD5 check sum: 3e3f909f7470e8921608ab6b1f57bbae
     Pseudo is Norm-conserving + core correction, Zval =  6.0
     Generated using ONCVPSP code by D. R. Hamann
     Using radial grid of  936 points,  5 beta functions with:
                l(1) =   0
                l(2) =   0
                l(3) =   1
                l(4) =   1
                l(5) =   2

     PseudoPot. # 3 for H  read from file:
     ./H.upf
     MD5 check sum: e96aa7e3e4a958db16958554ea960e2a
     Pseudo is Norm-conserving, Zval =  1.0
     Generated using ONCVPSP code by D. R. Hamann
     Using radial grid of 1166 points,  3 beta functions with:
                l(1) =   0
                l(2) =   0
                l(3) =   1

     atomic species   valence    mass     pseudopotential
        Si             4.00    27.97693     Si( 1.00)
        O              6.00    15.99491     O ( 1.00)
        H              1.00     1.00782     H ( 1.00)

     No symmetry found

   Cartesian axes

     site n.     atom                  positions (alat units)
         1           Si  tau(   1) = (  -0.1131856   0.0607643  -0.0212343  )
         2           Si  tau(   2) = (  -0.7280035   0.4296534  -0.3849121  )
         3           Si  tau(   3) = (   0.2999373  -0.4549696  -0.7668894  )
         4           O   tau(   4) = (  -0.2793059   0.1893730  -0.9835973  )
         5           O   tau(   5) = (  -0.3954654   0.3941413  -0.4699311  )
         6           O   tau(   6) = (   0.1509329   0.1059303  -0.2579513  )
         7           O   tau(   7) = (   0.2029600  -0.1574837  -0.9169284  )
         8           O   tau(   8) = (   0.6342643  -0.4291730  -0.6816218  )
         9           O   tau(   9) = (  -0.2518882  -0.2388668  -0.1433017  )
        10           H   tau(  10) = (   0.3677150  -0.0363238  -0.9566285  )
        11           H   tau(  11) = (  -0.1301369   0.0448356  -0.9685008  )

     number of k points=   504  Gaussian smearing, width (Ry)=  0.0200

     Number of k-points >= 100: set verbosity='high' to print them.

     Check: negative core charge=   -0.000200

     Initial potential from superposition of free atoms

     starting charge      49.9981, renormalised to      50.0000

     negative rho (up, down):  3.241E-03 0.000E+00
     Starting wfcs are   38 randomized atomic wfcs

     Self-consistent Calculation

     iteration #  1     ecut=    42.00 Ry     beta= 0.70
     Davidson diagonalization with overlap
     ethr =  1.00E-02,  avg # of iterations =  3.4

     negative rho (up, down):  7.100E-04 0.000E+00

     total energy              =    -225.31370316 Ry
     estimated scf accuracy    <       1.73860589 Ry

[...]

     End of self-consistent calculation

     Number of k-points >= 100: set verbosity='high' to print the bands.

     the Fermi energy is    -0.8758 ev

!    total energy              =    -226.01547745 Ry
     estimated scf accuracy    <       0.00000075 Ry
     smearing contrib. (-TS)   =      -0.00000000 Ry
     internal energy E=F+TS    =    -226.01547745 Ry

     The total energy is F=E-TS. E is the sum of the following terms:
     one-electron contribution =    -910.99707825 Ry
     hartree contribution      =     470.40870979 Ry
     xc contribution           =     -61.16251180 Ry
     ewald contribution        =     275.73540280 Ry

     convergence has been achieved in   9 iterations

     Forces acting on atoms (cartesian axes, Ry/au):

     atom    1 type  1   force =     0.00377181   -0.00796606   -0.00524714
     atom    2 type  1   force =     0.00078893    0.00022831    0.00118466
     atom    3 type  1   force =     0.00101912   -0.00078294   -0.00297738
     atom    4 type  2   force =    -0.00173572   -0.00162476    0.00134256
     atom    5 type  2   force =    -0.00453575    0.00230506   -0.00172550
     atom    6 type  2   force =    -0.00592203    0.00407716    0.00722777
     atom    7 type  2   force =     0.00929883   -0.00017729   -0.00106021
     atom    8 type  2   force =    -0.00346325   -0.00197620    0.00549294
     atom    9 type  2   force =     0.00709969    0.00637169    0.00168140
     atom   10 type  3   force =    -0.00357627   -0.00223831   -0.00235443
     atom   11 type  3   force =    -0.00274536    0.00178335   -0.00356467

     Total force =     0.023073     Total SCF correction =     0.001396

     Computing stress (Cartesian axis) and pressure

          total   stress  (Ry/bohr**3)                   (kbar)     P=     -205.15
  -0.00136817  -0.00001235   0.00000930         -201.26       -1.82        1.37
  -0.00001235  -0.00137076  -0.00000610           -1.82     -201.65       -0.90
   0.00000930  -0.00000610  -0.00144477            1.37       -0.90     -212.53

     BFGS Geometry Optimization
     Energy error            =      0.0E+00 Ry
     Gradient error          =      9.3E-03 Ry/Bohr
     Cell gradient error     =      2.0E+02 kbar

     number of scf cycles    =   1
     number of bfgs steps    =   0

     enthalpy           new  =    -226.0154774543 Ry

     new trust radius        =       0.3104852970 bohr
     new conv_thr            =       0.0000010000 Ry

     new unit-cell volume =   1913.94062 a.u.^3 (   283.61674 Ang^3 )
     density =      1.06509 g/cm^3

CELL_PARAMETERS (angstrom)
   4.594540833  -0.128220393   0.000000000
  -2.408364535   4.182481925   0.000000000
   0.000000000   0.000000000  15.000000000

ATOMIC_POSITIONS (angstrom)
Si           -0.5183893231        0.2753639691       -0.1038312040
Si           -3.3463132883        1.9758474838       -1.8311802227
Si            1.3797759709       -2.0918544585       -3.6512230154
O            -1.2849243752        0.8699271873       -4.6802558784
O            -1.8205550729        1.8132098095       -2.2373280680
O             0.6905422768        0.4887119721       -1.2237725296
O             0.9378386532       -0.7241759152       -4.3642480568
O             2.9140974049       -1.9743947297       -3.2409501302
O            -1.1537622522       -1.0941925115       -0.6810869033
H             1.6883355829       -0.1686257774       -4.5538670785
H            -0.5996107807        0.2071645509       -4.6110080760

     Writing config-only to output data dir /lustre/ukt/milias/scratch/QEjob.main.N2.n160.jid5154256/qe.save/
     NEW-OLD atomic charge density approx. for the potential

[...]

     negative rho (up, down):  9.514E-04 0.000E+00
     extrapolated charge   46.39227, renormalised to   50.00000

[...]

     iteration #  1     ecut=    42.00 Ry     beta= 0.70
     Davidson diagonalization with overlap
     c_bands:  3 eigenvalues not converged
     c_bands:  3 eigenvalues not converged
     c_bands:  3 eigenvalues not converged
     c_bands:  4 eigenvalues not converged
     c_bands:  3 eigenvalues not converged
     c_bands:  3 eigenvalues not converged
     c_bands:  4 eigenvalues not converged
     c_bands:  4 eigenvalues not converged
     c_bands:  3 eigenvalues not converged
     c_bands:  3 eigenvalues not converged
     c_bands:  3 eigenvalues not converged
     c_bands:  3 eigenvalues not converged
     c_bands:  4 eigenvalues not converged
     c_bands:  4 eigenvalues not converged
     c_bands:  5 eigenvalues not converged
     c_bands:  5 eigenvalues not converged
     c_bands:  5 eigenvalues not converged
     c_bands:  4 eigenvalues not converged
     c_bands:  4 eigenvalues not converged
     c_bands:  3 eigenvalues not converged
     c_bands:  4 eigenvalues not converged
     c_bands:  4 eigenvalues not converged
     c_bands:  4 eigenvalues not converged
     c_bands:  4 eigenvalues not converged
     c_bands:  5 eigenvalues not converged
     c_bands:  5 eigenvalues not converged
     c_bands:  4 eigenvalues not converged
     c_bands:  4 eigenvalues not converged
     c_bands:  4 eigenvalues not converged
     c_bands:  5 eigenvalues not converged
     c_bands:  4 eigenvalues not converged
     c_bands:  4 eigenvalues not converged
     c_bands:  4 eigenvalues not converged
     c_bands:  4 eigenvalues not converged
     c_bands:  4 eigenvalues not converged
     c_bands:  4 eigenvalues not converged
     c_bands:  3 eigenvalues not converged
     c_bands:  3 eigenvalues not converged
     c_bands:  3 eigenvalues not converged
     c_bands:  3 eigenvalues not converged
     c_bands:  4 eigenvalues not converged
     c_bands:  3 eigenvalues not converged
     c_bands:  4 eigenvalues not converged
     c_bands:  4 eigenvalues not converged
     c_bands:  4 eigenvalues not converged
     c_bands:  4 eigenvalues not converged
     c_bands:  4 eigenvalues not converged
     c_bands:  3 eigenvalues not converged
     c_bands:  4 eigenvalues not converged
     c_bands:  4 eigenvalues not converged
     c_bands:  4 eigenvalues not converged
     c_bands:  4 eigenvalues not converged
     c_bands:  4 eigenvalues not converged
     c_bands:  4 eigenvalues not converged
     c_bands:  5 eigenvalues not converged
     c_bands:  4 eigenvalues not converged
     c_bands:  4 eigenvalues not converged
     c_bands:  4 eigenvalues not converged
     c_bands:  4 eigenvalues not converged
     c_bands:  5 eigenvalues not converged
[...]
     c_bands:  3 eigenvalues not converged
     c_bands:  4 eigenvalues not converged
     c_bands:  4 eigenvalues not converged
     c_bands:  5 eigenvalues not converged
     c_bands:  5 eigenvalues not converged
     c_bands:  4 eigenvalues not converged
     c_bands:  4 eigenvalues not converged
     c_bands:  4 eigenvalues not converged
     c_bands:  4 eigenvalues not converged
     c_bands:  4 eigenvalues not converged
     c_bands:  4 eigenvalues not converged
     c_bands:  5 eigenvalues not converged
     c_bands:  5 eigenvalues not converged
     c_bands:  5 eigenvalues not converged
     c_bands:  5 eigenvalues not converged
     ethr =  1.00E-06,  avg # of iterations = 20.6

[...]

     Energy error            =      1.5E-01 Ry
     Gradient error          =      6.1E-02 Ry/Bohr
     Cell gradient error     =      1.1E+02 kbar

[...]

     enthalpy           old  =    -226.0154774543 Ry
     enthalpy           new  =    -226.1634189220 Ry

     CASE: enthalpy          _new < enthalpy          _old

[...]

     Threshold (ethr) on eigenvalues was too large:
     Diagonalizing with lowered threshold

     Davidson diagonalization with overlap
     ethr =  1.19E-08,  avg # of iterations =  3.1

[...]

     number of scf cycles    =  39
     number of bfgs steps    =  38

     enthalpy           old  =    -226.4015212870 Ry
     enthalpy           new  =    -226.4015397714 Ry

     CASE: enthalpy          _new < enthalpy          _old

     new trust radius        =       0.0092367658 bohr
     new conv_thr            =       0.0000000100 Ry

     new unit-cell volume =   1508.93532 a.u.^3 (   223.60115 Ang^3 )
     density =      1.35097 g/cm^3

[...]

ATOMIC_POSITIONS (angstrom)
Si           -0.1390870420       -0.1111040136        0.3242670138
Si           -3.0467081352        1.6512957998       -1.7428536392
Si            1.1278021812       -1.7394963842       -3.7203437992
O            -1.2319466770        0.9566695539       -5.0092685526
O            -1.5208575401        1.4018170518       -2.2576513415
O             0.5855574874        0.1098618103       -1.1778768649
O             0.7366798092       -0.3090024928       -4.3713768539
O             2.6664296665       -1.5316065969       -3.1927255244
O            -1.2071948329       -1.2157898723       -0.3317725993
H             1.5528912554        0.1649530663       -4.7544626409
H            -0.5153091231        0.2421723214       -4.9446863608

     Writing config-only to output data dir /lustre/ukt/milias/scratch/QEjob.main.N2.n160.jid5154256/qe.save/
     NEW-OLD atomic charge density approx. for the potential

[...]

     negative rho (up, down):  5.275E-07 0.000E+00
     extrapolated charge   49.97895, renormalised to   50.00000

[...]

     Energy error            =      1.6E-05 Ry
     Gradient error          =      8.6E-04 Ry/Bohr
     Cell gradient error     =      4.7E-01 kbar

     bfgs converged in  40 scf cycles and  39 bfgs steps
     (criteria: energy <  1.0E-04 Ry, force <  1.0E-03 Ry/Bohr, cell <  5.0E-01 kbar)

     End of BFGS Geometry Optimization

     Final enthalpy           =    -226.4015554587 Ry

     File /lustre/ukt/milias/scratch/QEjob.main.N2.n160.jid5154256/qe.bfgs deleted, as requested
Begin final coordinates
     new unit-cell volume =   1508.93532 a.u.^3 (   223.60115 Ang^3 )
     density =      1.35097 g/cm^3

CELL_PARAMETERS (angstrom)
   4.085451758  -0.092157108   0.000000000
  -2.122499415   3.696616028   0.000000000
   0.000000000   0.000000000  15.000000000

ATOMIC_POSITIONS (angstrom)
Si           -0.1390870420       -0.1111040136        0.3242670138
Si           -3.0467081352        1.6512957998       -1.7428536392
Si            1.1278021812       -1.7394963842       -3.7203437992
O            -1.2319466770        0.9566695539       -5.0092685526
O            -1.5208575401        1.4018170518       -2.2576513415
O             0.5855574874        0.1098618103       -1.1778768649
O             0.7366798092       -0.3090024928       -4.3713768539
O             2.6664296665       -1.5316065969       -3.1927255244
O            -1.2071948329       -1.2157898723       -0.3317725993
H             1.5528912554        0.1649530663       -4.7544626409
H            -0.5153091231        0.2421723214       -4.9446863608
End final coordinates

     Writing config-only to output data dir /lustre/ukt/milias/scratch/QEjob.main.N2.n160.jid5154256/qe.save/

     Final scf calculation at the relaxed structure.
     The G-vectors are recalculated for the final unit cell
     Results may differ from those at the preceding step.

     Using Slab Decomposition

     bravais-lattice index     =            0
     lattice parameter (alat)  =       8.9933  a.u.
     unit-cell volume          =    1508.9353 (a.u.)^3
     number of atoms/cell      =           11
     number of atomic types    =            3
     number of electrons       =        50.00
     number of Kohn-Sham states=           30
     kinetic-energy cutoff     =      42.0000  Ry
     charge density cutoff     =     168.0000  Ry
     scf convergence threshold =      1.0E-08
     mixing beta               =       0.7000
     number of iterations used =            8  plain     mixing
     press convergence thresh. =      5.0E-01
     Exchange-correlation= PBE
                           (   1   4   3   4   0   0   0)

     celldm(1)=   8.993258  celldm(2)=   0.000000  celldm(3)=   0.000000
     celldm(4)=   0.000000  celldm(5)=   0.000000  celldm(6)=   0.000000

     crystal axes: (cart. coord. in units of alat)
               a(1) = (   0.858464  -0.019365   0.000000 )
               a(2) = (  -0.445994   0.776759   0.000000 )
               a(3) = (   0.000000   0.000000   3.151905 )

     reciprocal axes: (cart. coord. in units 2 pi/alat)
               b(1) = (  1.180157  0.677615 -0.000000 )
               b(2) = (  0.029421  1.304294 -0.000000 )
               b(3) = ( -0.000000 -0.000000  0.317268 )

     PseudoPot. # 1 for Si read from file:
     ./Si.upf
     MD5 check sum: 02fab3f35e82123ef5bf1cb05d5b1a5e
     Pseudo is Norm-conserving + core correction, Zval =  4.0
     Generated using ONCVPSP code by D. R. Hamann
     Using radial grid of 1510 points,  6 beta functions with:
                l(1) =   0
                l(2) =   0
                l(3) =   1
                l(4) =   1
                l(5) =   2
                l(6) =   2

     PseudoPot. # 2 for O  read from file:
     ./O.upf
     MD5 check sum: 3e3f909f7470e8921608ab6b1f57bbae
     Pseudo is Norm-conserving + core correction, Zval =  6.0
     Generated using ONCVPSP code by D. R. Hamann
     Using radial grid of  936 points,  5 beta functions with:
                l(1) =   0
                l(2) =   0
                l(3) =   1
                l(4) =   1
                l(5) =   2

     PseudoPot. # 3 for H  read from file:
     ./H.upf
     MD5 check sum: e96aa7e3e4a958db16958554ea960e2a
     Pseudo is Norm-conserving, Zval =  1.0
     Generated using ONCVPSP code by D. R. Hamann
     Using radial grid of 1166 points,  3 beta functions with:
                l(1) =   0
                l(2) =   0
                l(3) =   1

     atomic species   valence    mass     pseudopotential
        Si             4.00    27.97693     Si( 1.00)
        O              6.00    15.99491     O ( 1.00)
        H              1.00     1.00782     H ( 1.00)

     No symmetry found

   Cartesian axes

     site n.     atom                  positions (alat units)
         1           Si  tau(   1) = (  -0.0292259  -0.0233460   0.0681372  )
         2           Si  tau(   2) = (  -0.6401956   0.3469818  -0.3662206  )
         3           Si  tau(   3) = (   0.2369817  -0.3655151  -0.7817446  )
         4           O   tau(   4) = (  -0.2588652   0.2010221  -1.0525825  )
         5           O   tau(   5) = (  -0.3195732   0.2945596  -0.4743935  )
         6           O   tau(   6) = (   0.1230414   0.0230849  -0.2475037  )
         7           O   tau(   7) = (   0.1547963  -0.0649298  -0.9185442  )
         8           O   tau(   8) = (   0.5602888  -0.3218319  -0.6708778  )
         9           O   tau(   9) = (  -0.2536642  -0.2554703  -0.0697144  )
        10           H   tau(  10) = (   0.3263043   0.0346611  -0.9990409  )
        11           H   tau(  11) = (  -0.1082803   0.0508869  -1.0390120  )

     number of k points=   504  Gaussian smearing, width (Ry)=  0.0200

     Number of k-points >= 100: set verbosity='high' to print them.

     Check: negative core charge=   -0.000236

     Initial potential from superposition of free atoms

     starting charge      49.9981, renormalised to      50.0000

     negative rho (up, down):  2.074E-03 0.000E+00
     Starting wfcs are   38 randomized atomic wfcs

     Self-consistent Calculation

     iteration #  1     ecut=    42.00 Ry     beta= 0.70
     Davidson diagonalization with overlap
     c_bands:  2 eigenvalues not converged
     c_bands:  2 eigenvalues not converged
     c_bands:  2 eigenvalues not converged
     c_bands:  2 eigenvalues not converged
     c_bands:  1 eigenvalues not converged
     c_bands:  1 eigenvalues not converged
     c_bands:  2 eigenvalues not converged
     c_bands:  2 eigenvalues not converged
     c_bands:  2 eigenvalues not converged
     c_bands:  1 eigenvalues not converged
     c_bands:  1 eigenvalues not converged
     c_bands:  1 eigenvalues not converged
     c_bands:  1 eigenvalues not converged
     c_bands:  1 eigenvalues not converged
     c_bands:  1 eigenvalues not converged
     c_bands:  1 eigenvalues not converged
     c_bands:  1 eigenvalues not converged
     c_bands:  1 eigenvalues not converged
     c_bands:  2 eigenvalues not converged
     c_bands:  1 eigenvalues not converged
     c_bands:  1 eigenvalues not converged
     c_bands:  1 eigenvalues not converged
     c_bands:  1 eigenvalues not converged
     c_bands:  1 eigenvalues not converged
     c_bands:  2 eigenvalues not converged
     c_bands:  2 eigenvalues not converged
     c_bands:  2 eigenvalues not converged
     c_bands:  1 eigenvalues not converged
     c_bands:  1 eigenvalues not converged
     c_bands:  2 eigenvalues not converged
     c_bands:  2 eigenvalues not converged
     c_bands:  2 eigenvalues not converged
     c_bands:  2 eigenvalues not converged
     c_bands:  2 eigenvalues not converged
     c_bands:  2 eigenvalues not converged
     c_bands:  2 eigenvalues not converged
     c_bands:  2 eigenvalues not converged
     c_bands:  2 eigenvalues not converged
     c_bands:  2 eigenvalues not converged
     c_bands:  2 eigenvalues not converged
     c_bands:  2 eigenvalues not converged
     c_bands:  2 eigenvalues not converged
     c_bands:  2 eigenvalues not converged
     c_bands:  2 eigenvalues not converged
     c_bands:  2 eigenvalues not converged
     c_bands:  2 eigenvalues not converged
     c_bands:  1 eigenvalues not converged
     c_bands:  1 eigenvalues not converged
     c_bands:  1 eigenvalues not converged
     c_bands:  1 eigenvalues not converged
     c_bands:  1 eigenvalues not converged
     c_bands:  1 eigenvalues not converged
     c_bands:  1 eigenvalues not converged
     c_bands:  1 eigenvalues not converged
     c_bands:  2 eigenvalues not converged
     c_bands:  2 eigenvalues not converged
     c_bands:  2 eigenvalues not converged
     c_bands:  2 eigenvalues not converged
     c_bands:  2 eigenvalues not converged
     c_bands:  2 eigenvalues not converged
[...]
     c_bands:  2 eigenvalues not converged
     c_bands:  2 eigenvalues not converged
     c_bands:  2 eigenvalues not converged
     c_bands:  2 eigenvalues not converged
     c_bands:  2 eigenvalues not converged
     c_bands:  2 eigenvalues not converged
     c_bands:  2 eigenvalues not converged
     c_bands:  2 eigenvalues not converged
     c_bands:  2 eigenvalues not converged
     c_bands:  1 eigenvalues not converged
     c_bands:  1 eigenvalues not converged
     c_bands:  1 eigenvalues not converged
     c_bands:  2 eigenvalues not converged
     c_bands:  1 eigenvalues not converged
     c_bands:  1 eigenvalues not converged
     ethr =  1.00E-06,  avg # of iterations = 20.0

[...]

     negative rho (up, down):  4.729E-05 0.000E+00

[...]

     total energy              =    -225.86610371 Ry
     estimated scf accuracy    <       0.00000004 Ry

     iteration # 11     ecut=    42.00 Ry     beta= 0.70
     Davidson diagonalization with overlap
     ethr =  8.31E-11,  avg # of iterations =  2.6

     End of self-consistent calculation

     Number of k-points >= 100: set verbosity='high' to print the bands.

     the Fermi energy is     0.3701 ev

!    total energy              =    -225.86610372 Ry
     estimated scf accuracy    <          2.1E-09 Ry
     smearing contrib. (-TS)   =      -0.00000000 Ry
     internal energy E=F+TS    =    -225.86610372 Ry

     The total energy is F=E-TS. E is the sum of the following terms:
     one-electron contribution =   -1032.83404512 Ry
     hartree contribution      =     534.33980307 Ry
     xc contribution           =     -61.55214691 Ry
     ewald contribution        =     334.18028524 Ry

     convergence has been achieved in  11 iterations

     Forces acting on atoms (cartesian axes, Ry/au):

     atom    1 type  1   force =     0.00059071    0.00073566    0.00171068
     atom    2 type  1   force =     0.00008003    0.00074979   -0.00046538
     atom    3 type  1   force =    -0.00005089   -0.00024260    0.00030210
     atom    4 type  2   force =    -0.00081858   -0.00585341   -0.00293519
     atom    5 type  2   force =     0.00081586   -0.00057488   -0.00521344
     atom    6 type  2   force =     0.00146050    0.00429994    0.00492815
     atom    7 type  2   force =    -0.00301582    0.00380843   -0.00357632
     atom    8 type  2   force =     0.00068243    0.00129487    0.00300011
     atom    9 type  2   force =     0.00094079   -0.00359462    0.00197245
     atom   10 type  3   force =     0.00033141   -0.00031923    0.00100471
     atom   11 type  3   force =    -0.00101646   -0.00030396   -0.00072787

     Total force =     0.013766     Total SCF correction =     0.000165

     Computing stress (Cartesian axis) and pressure

          total   stress  (Ry/bohr**3)                   (kbar)     P=     -217.80
  -0.00126148   0.00001134   0.00000562         -185.57        1.67        0.83
   0.00001134  -0.00129704  -0.00001726            1.67     -190.80       -2.54
   0.00000562  -0.00001726  -0.00188326            0.83       -2.54     -277.04

     Writing all to output data dir /lustre/ukt/milias/scratch/QEjob.main.N2.n160.jid5154256/qe.save/

     General routines

     Parallel routines

   This run was terminated on:  23:36:35  27Jul2023

   JOB DONE.