     Program PHONON v.7.4.1 starts on 27Aug2025 at  9:20:24

     Waiting for input...
     Reading input from standard input
      Title line not specified: using 'default'.

     Reading xml data from directory:

     ./tmp/si_scf.save/

     IMPORTANT: XC functional enforced from input :
     Exchange-correlation= PZ
                           (   1   1   0   0   0   0   0)
     Any further DFT definition will be discarded
     Please, verify this is what you really want

     Using Slab Decomposition

     Reading collected, re-writing distributed wavefunctions in ./tmp/

     Number and degeneracy of irreps per q-point
       N         xq(1)         xq(2)         xq(3)   N irreps
       1   0.000000000   0.000000000   0.000000000       2
        3   3

     Calculation of q =    0.0000000   0.0000000   0.0000000

     default

     bravais-lattice index     =            0
     lattice parameter (alat)  =       7.3065  a.u.
     unit-cell volume          =     275.8081 (a.u.)^3
     number of atoms/cell      =            2
     number of atomic types    =            1
     kinetic-energy cut-off    =      30.0000  Ry
     charge density cut-off    =     240.0000  Ry
     convergence threshold     =      1.0E-12
     beta                      =       0.7000
     number of iterations used =            4
     Exchange-correlation= PZ
                           (   1   1   0   0   0   0   0)

     celldm(1)=    7.30647  celldm(2)=    0.00000  celldm(3)=    0.00000
     celldm(4)=    0.00000  celldm(5)=    0.00000  celldm(6)=    0.00000

     crystal axes: (cart. coord. in units of alat)
               a(1) = ( -0.0000  0.7071  0.7071 )
               a(2) = (  0.7071  0.0000  0.7071 )
               a(3) = (  0.7071  0.7071  0.0000 )

     reciprocal axes: (cart. coord. in units 2 pi/alat)
               b(1) = ( -0.7071  0.7071  0.7071 )
               b(2) = (  0.7071 -0.7071  0.7071 )
               b(3) = (  0.7071  0.7071 -0.7071 )

     Atoms inside the unit cell:

     Cartesian axes

     site n.  atom      mass           positions (alat units)
        1  Si     28.0855   tau(    1) = (    0.35355    1.06066    1.06066  )
        2  Si     28.0855   tau(    2) = (    0.00000    0.00000    0.00000  )

     Computing dynamical matrix for
                    q = (   0.0000000   0.0000000   0.0000000 )

     49 Sym.Ops. (with q -> -q+G )

     G cutoff =  324.5384  (  17261 G-vectors)     FFT grid: ( 40, 40, 40)
     G cutoff =  162.2692  (   6183 G-vectors)  smooth grid: ( 32, 32, 32)
     number of k points=     3
                       cart. coord. in units 2pi/alat
        k(    1) = (   0.0000000   0.0000000   0.0000000), wk =   0.2500000
        k(    2) = (  -0.3535534  -0.3535534   0.3535534), wk =   1.0000000
        k(    3) = (  -0.7071068   0.0000000   0.0000000), wk =   0.7500000

     PseudoPot. # 1 for Si read from file:
     ./Si.pz-vbc.UPF
     MD5 check sum: 6dfa03ddd5817404712e03e4d12deb78
     Pseudo is Norm-conserving, Zval =  4.0
     Generated by new atomic code, or converted to UPF format
     Using radial grid of  431 points,  2 beta functions with:
                l(1) =   0
                l(2) =   1

     Mode symmetry, O_h (m-3m)  point group:

     Electric field:
     Dielectric constant
     Born effective charges as d Force / d E
     Raman tensor

     Atomic displacements:
     There are    2 irreducible representations

     Representation     1      3 modes -  To be done

     Representation     2      3 modes -  To be done

     Alpha used in Ewald sum =   2.5000

     Electric Fields Calculation

      thresh= 1.000E-02 alpha_mix =  0.700 |ddv_scf|^2 =  3.375E-07

[...]

     End of electric fields calculation

          Dielectric constant in cartesian axis

          (      61.622360065      -0.000000000       0.000000000 )
          (      -0.000000000      61.622360065      -0.000000000 )
          (      -0.000000000      -0.000000000      61.622360065 )

          Effective charges (d Force / dE) in cartesian axis without acoustic sum rule applied (asr)

           atom    1  Si    Mean Z*:       -5.63523
      Ex  (       -5.63523        0.00000       -0.00000 )
      Ey  (        0.00000       -5.63523       -0.00000 )
      Ez  (       -0.00000       -0.00000       -5.63523 )
           atom    2  Si    Mean Z*:       -5.63523
      Ex  (       -5.63523       -0.00000       -0.00000 )
      Ey  (       -0.00000       -5.63523        0.00000 )
      Ez  (       -0.00000        0.00000       -5.63523 )

          Effective charges Sum: Mean:      -11.27047
            -11.27047        0.00000       -0.00000
             -0.00000      -11.27047       -0.00000
             -0.00000       -0.00000      -11.27047

          Effective charges (d Force / dE) in cartesian axis with asr applied:
           atom    1  Si    Mean Z*:        0.00000
      E*x (        0.00000        0.00000        0.00000 )
      E*y (        0.00000        0.00000       -0.00000 )
      E*z (        0.00000       -0.00000       -0.00000 )
           atom    2  Si    Mean Z*:        0.00000
      E*x (        0.00000       -0.00000        0.00000 )
      E*y (       -0.00000        0.00000        0.00000 )
      E*z (        0.00000        0.00000        0.00000 )

     Calling punch_plot_e
     Writing on file  drho

     Computing Pc [DH,Drho] |psi>

     Derivative coefficient:  0.001000    Threshold: 1.00E-12
     Non-scf  u_k: avg # of iterations = 15.9
     Non-scf Du_k: avg # of iterations = 24.8

          Dielectric constant from finite-differences

[...]

     Computing Second order response

      iter #   1   av.it.:   9.0
      thresh= 1.000E-02 alpha_mix =  0.700 |ddv_scf|^2 =  8.758E-05

[...]

      iter #   6   av.it.:   9.4
      thresh= 2.574E-07 alpha_mix =  0.700 |ddv_scf|^2 =  6.059E-15

          Raman tensor (au^-1) in cartesian axis

           atom      1
          (       0.000000000       0.000000000      -0.000000000 )
          (       0.000000000      -0.000000000      26.470744198 )
          (      -0.000000000      26.470744198       0.000000000 )

[...]

           atom      2
          (      -0.000000000       0.000000000       0.000000000 )
          (      -0.000000000       0.000000000     -26.470744198 )
          (       0.000000000     -26.470744198       0.000000000 )

[...]

     Raman tensor (A^2)

     atom #    1    pol.  1
      0.329540196690E-13      0.111187001544E-13     -0.111187001544E-13
      0.111187001544E-13     -0.543872583893E-13      0.162691736406E+03
     -0.111187001544E-13      0.162691736406E+03      0.111187001544E-13
     atom #    1    pol.  2
     -0.653049181466E-13     -0.216342791175E-13      0.162691736406E+03
      0.201040397111E-15      0.875423184554E-13     -0.547893391836E-13
      0.162691736406E+03     -0.547893391836E-13     -0.107166193602E-13
     atom #    1    pol.  3
      0.653049181466E-13      0.162691736406E+03     -0.434695986321E-13
      0.162691736406E+03     -0.111187001544E-13      0.329540196690E-13
     -0.325519388748E-13      0.111187001544E-13      0.107166193602E-13
     atom #    2    pol.  1
     -0.678569649958E-14      0.150496230150E-13      0.678569649958E-14
     -0.678569649958E-14      0.150496230150E-13     -0.162691736406E+03
      0.286210160142E-13     -0.162691736406E+03      0.368849425296E-13
     atom #    2    pol.  2
      0.413196325771E-14     -0.678569649958E-14     -0.162691736406E+03
     -0.132686662093E-14     -0.231621861355E-13     -0.959079313636E-14
     -0.162691736406E+03     -0.205084528936E-13     -0.132686662093E-14
     atom #    2    pol.  3
      0.678569649958E-14     -0.162691736406E+03     -0.286210160142E-13
     -0.162691736406E+03     -0.413196325771E-14      0.259672827723E-13
     -0.395386757715E-13      0.259672827723E-13     -0.413196325771E-14

     Representation #   1 modes #   1   2   3

     Self-consistent Calculation

[...]

     End of self-consistent calculation

     Convergence has been achieved

     Representation #   2 modes #   4   5   6

     Self-consistent Calculation

[...]

      thresh= 3.066E-07 alpha_mix =  0.700 |ddv_scf|^2 =  2.740E-14

     End of self-consistent calculation

     Convergence has been achieved

     Number of q in the star =    1
     List of q in the star:
          1   0.000000000   0.000000000   0.000000000

          Dielectric constant in cartesian axis

          (      61.612983720       0.000000000      -0.000000000 )
          (       0.000000000      61.612983720       0.000000000 )
          (      -0.000000000       0.000000000      61.612983720 )

          Effective charges (d Force / dE) in cartesian axis without acoustic sum rule applied (asr)

           atom    1  Si    Mean Z*:       -5.63523
      Ex  (       -5.63523        0.00000       -0.00000 )
      Ey  (        0.00000       -5.63523       -0.00000 )
      Ez  (       -0.00000       -0.00000       -5.63523 )
           atom    2  Si    Mean Z*:       -5.63523
      Ex  (       -5.63523       -0.00000       -0.00000 )
      Ey  (       -0.00000       -5.63523        0.00000 )
      Ez  (       -0.00000        0.00000       -5.63523 )

          Effective charges Sum: Mean:      -11.27047
            -11.27047        0.00000       -0.00000
             -0.00000      -11.27047       -0.00000
             -0.00000       -0.00000      -11.27047

          Effective charges (d Force / dE) in cartesian axis with asr applied:
           atom    1  Si    Mean Z*:        0.00000
      E*x (        0.00000        0.00000        0.00000 )
      E*y (        0.00000        0.00000       -0.00000 )
      E*z (        0.00000       -0.00000       -0.00000 )
           atom    2  Si    Mean Z*:        0.00000
      E*x (        0.00000       -0.00000        0.00000 )
      E*y (       -0.00000        0.00000        0.00000 )
      E*z (        0.00000        0.00000        0.00000 )

     Diagonalizing the dynamical matrix

     q = (    0.000000000   0.000000000   0.000000000 )

     freq (    1) =       0.526010 [THz] =      17.545803 [cm-1]
     freq (    2) =       0.526010 [THz] =      17.545803 [cm-1]
     freq (    3) =       0.526010 [THz] =      17.545803 [cm-1]
     freq (    4) =      16.907422 [THz] =     563.970892 [cm-1]
     freq (    5) =      16.907422 [THz] =     563.970892 [cm-1]
     freq (    6) =      16.907422 [THz] =     563.970892 [cm-1]

     Mode symmetry, O_h (m-3m)  point group:

     freq (   1-   3) =         17.5  [cm-1]   --> T_1u G_15  G_4- I
     freq (   4-   6) =        564.0  [cm-1]   --> T_2g G_25' G_5+ R

     INITIALIZATION:

     DIELECTRIC CONSTANT AND EFFECTIVE CHARGES:

     RAMAN COEFFICIENTS, THIRD-ORDER CHI:

     DYNAMICAL MATRIX:

                                        0.00s GPU  (     225 calls)
                                        0.00s GPU  (     120 calls)
                                        0.00s GPU  (      24 calls)

                                        0.00s GPU  (     108 calls)

      General routines

      Additional routines
                                        0.00s GPU  (    5122 calls)

   This run was terminated on:   9:20:36  27Aug2025

   JOB DONE.