     Program PWSCF v.7.4.1 starts on 22Jul2025 at 10: 7:32

     Waiting for input...
     Reading input from standard input

     Current dimensions of program PWSCF are:
     Max number of different atomic species (ntypx) = 10
     Max number of k-points (npk) =  40000
     Max angular momentum in pseudopotentials (lmaxx) =  4
     Message from routine setup:
     using ibrav=0 with symmetry is DISCOURAGED, use correct ibrav instead

     R & G space division:  proc/nbgrp/npool/nimage =       4
     Subspace diagonalization in iterative solution of the eigenvalue problem:
     a serial algorithm will be used

     Using Slab Decomposition

     bravais-lattice index     =            0
     lattice parameter (alat)  =       7.2555  a.u.
     unit-cell volume          =     270.0773 (a.u.)^3
     number of atoms/cell      =            2
     number of atomic types    =            1
     number of electrons       =         8.00
     number of Kohn-Sham states=            8
     kinetic-energy cutoff     =      65.0000  Ry
     charge density cutoff     =     260.0000  Ry
     scf convergence threshold =      1.0E-10
     mixing beta               =       0.7000
     number of iterations used =            8  plain     mixing
     energy convergence thresh.=      1.0E-04
     force convergence thresh. =      1.0E-03
     press convergence thresh. =      5.0E-01
     Exchange-correlation= PBE
                           (   1   4   3   4   0   0   0)
     nstep                     =           50

     celldm(1)=   7.255506  celldm(2)=   0.000000  celldm(3)=   0.000000
     celldm(4)=   0.000000  celldm(5)=   0.000000  celldm(6)=   0.000000

     crystal axes: (cart. coord. in units of alat)
               a(1) = (   0.000000   0.707107   0.707107 )
               a(2) = (   0.707107   0.000000   0.707107 )
               a(3) = (   0.707107   0.707107   0.000000 )

     reciprocal axes: (cart. coord. in units 2 pi/alat)
               b(1) = ( -0.707107  0.707107  0.707107 )
               b(2) = (  0.707107 -0.707107  0.707107 )
               b(3) = (  0.707107  0.707107 -0.707107 )

     PseudoPot. # 1 for Si read from file:
     ./Si.upf
     MD5 check sum: 02fab3f35e82123ef5bf1cb05d5b1a5e
     Pseudo is Norm-conserving + core correction, Zval =  4.0
     Generated using ONCVPSP code by D. R. Hamann
     Using radial grid of 1510 points,  6 beta functions with:
                l(1) =   0
                l(2) =   0
                l(3) =   1
                l(4) =   1
                l(5) =   2
                l(6) =   2

     atomic species   valence    mass     pseudopotential
     Si                4.00    28.08500     Si( 1.00)

     48 Sym. Ops., with inversion, found (24 have fractional translation)

   Cartesian axes

     site n.     atom                  positions (alat units)
         1        Si     tau(   1) = (   0.3535534   1.0606602   1.0606602  )
         2        Si     tau(   2) = (   0.0000000   0.0000000   0.0000000  )

     number of k points=   120  Gaussian smearing, width (Ry)=  0.0100

     Number of k-points >= 100: set verbosity='high' to print them.

     Initial potential from superposition of free atoms

     starting charge       7.9988, renormalised to       8.0000
     Starting wfcs are    8 randomized atomic wfcs

     Self-consistent Calculation

     iteration #  1     ecut=    65.00 Ry     beta= 0.70
     Davidson diagonalization with overlap
     ethr =  1.00E-02,  avg # of iterations =  4.8

     Threshold (ethr) on eigenvalues was too large:
     Diagonalizing with lowered threshold

     Davidson diagonalization with overlap
     ethr =  6.54E-04,  avg # of iterations =  1.8

     total energy              =     -16.92246898 Ry
     estimated scf accuracy    <       0.05589065 Ry

[...]

     End of self-consistent calculation

     Number of k-points >= 100: set verbosity='high' to print the bands.

     the Fermi energy is     6.5148 ev

!    total energy              =     -16.92488384 Ry
     estimated scf accuracy    <          3.8E-11 Ry
     smearing contrib. (-TS)   =      -0.00000022 Ry
     internal energy E=F+TS    =     -16.92488363 Ry

     The total energy is F=E-TS. E is the sum of the following terms:
     one-electron contribution =       4.96416558 Ry
     hartree contribution      =       1.09478248 Ry
     xc contribution           =      -6.18426918 Ry
     ewald contribution        =     -16.79956250 Ry

     convergence has been achieved in   7 iterations

     Forces acting on atoms (cartesian axes, Ry/au):

     atom    1 type  1   force =    -0.00000000   -0.00000000    0.00000000
     atom    2 type  1   force =     0.00000000    0.00000000   -0.00000000

     Total force =     0.000000     Total SCF correction =     0.000000

     Computing stress (Cartesian axis) and pressure

          total   stress  (Ry/bohr**3)                   (kbar)     P=       19.93
   0.00013547   0.00000000  -0.00000000           19.93        0.00       -0.00
   0.00000000   0.00013547   0.00000000            0.00       19.93        0.00
   0.00000000   0.00000000   0.00013547            0.00        0.00       19.93

     BFGS Geometry Optimization
     Energy error            =      3.7E-04 Ry
     Gradient error          =      1.9E-31 Ry/Bohr
     Cell gradient error     =      2.0E+01 kbar

     number of scf cycles    =   1
     number of bfgs steps    =   0

     enthalpy           new  =     -16.9248838447 Ry

     new trust radius        =       0.0111314384 bohr
     new conv_thr            =            1.0E-10 Ry

     new unit-cell volume =    272.83064 a.u.^3 (    40.42933 Ang^3 )
     density =      2.30705 g/cm^3

CELL_PARAMETERS (angstrom)
  -0.000000000   2.724094563   2.724094563
   2.724094563   0.000000000   2.724094563
   2.724094563   2.724094563   0.000000000

ATOMIC_POSITIONS (angstrom)
Si               1.3620472813        4.0861418439        4.0861418439
Si               0.0000000000        0.0000000000       -0.0000000000

     Writing config-only to output data dir ./pwscf.save/ :
     XML data file
     NEW-OLD atomic charge density approx. for the potential
     New effective cutoffs (rho, wfc):  257.73   64.56

[...]

     Energy error            =      2.8E-04 Ry
     Gradient error          =      9.3E-32 Ry/Bohr
     Cell gradient error     =      1.0E+01 kbar

[...]

     enthalpy           old  =     -16.9248838447 Ry
     enthalpy           new  =     -16.9251661162 Ry

     CASE: enthalpy          _new < enthalpy          _old

[...]

     number of scf cycles    =   3
     number of bfgs steps    =   2

     enthalpy           old  =     -16.9251661162 Ry
     enthalpy           new  =     -16.9252746837 Ry

     CASE: enthalpy          _new < enthalpy          _old

     new trust radius        =       0.0004360128 bohr
     new conv_thr            =            1.0E-12 Ry

     new unit-cell volume =    275.95843 a.u.^3 (    40.89282 Ang^3 )
     density =      2.28090 g/cm^3

[...]

ATOMIC_POSITIONS (angstrom)
Si               1.3672324629        4.1016973887        4.1016973887
Si               0.0000000000       -0.0000000000        0.0000000000

     Writing config-only to output data dir ./pwscf.save/ :
     XML data file
     NEW-OLD atomic charge density approx. for the potential
     New effective cutoffs (rho, wfc):  255.78   64.07

[...]

     Threshold (ethr) on eigenvalues was too large:
     Diagonalizing with lowered threshold

     Davidson diagonalization with overlap
     ethr =  1.08E-10,  avg # of iterations =  4.0

[...]

     Energy error            =      1.3E-07 Ry
     Gradient error          =      2.3E-32 Ry/Bohr
     Cell gradient error     =      6.6E-03 kbar

     bfgs converged in   4 scf cycles and   3 bfgs steps
     (criteria: energy <  1.0E-04 Ry, force <  1.0E-03 Ry/Bohr, cell <  5.0E-01 kbar)

     End of BFGS Geometry Optimization

     Final enthalpy           =     -16.9252748172 Ry

     File ./pwscf.bfgs deleted, as requested
Begin final coordinates
     new unit-cell volume =    275.95843 a.u.^3 (    40.89282 Ang^3 )
     density =      2.28090 g/cm^3

CELL_PARAMETERS (angstrom)
   0.000000000   2.734464926   2.734464926
   2.734464926   0.000000000   2.734464926
   2.734464926   2.734464926   0.000000000

ATOMIC_POSITIONS (angstrom)
Si               1.3672324629        4.1016973887        4.1016973887
Si               0.0000000000       -0.0000000000        0.0000000000
End final coordinates

     Writing config-only to output data dir ./pwscf.save/ :
     XML data file

     Final scf calculation at the relaxed structure.
     The G-vectors are recalculated for the final unit cell
     Results may differ from those at the preceding step.

     Using Slab Decomposition

     bravais-lattice index     =            0
     lattice parameter (alat)  =       7.2555  a.u.
     unit-cell volume          =     275.9584 (a.u.)^3
     number of atoms/cell      =            2
     number of atomic types    =            1
     number of electrons       =         8.00
     number of Kohn-Sham states=            8
     kinetic-energy cutoff     =      65.0000  Ry
     charge density cutoff     =     260.0000  Ry
     scf convergence threshold =      1.0E-12
     mixing beta               =       0.7000
     number of iterations used =            8  plain     mixing
     press convergence thresh. =      5.0E-01
     Exchange-correlation= PBE
                           (   1   4   3   4   0   0   0)

     celldm(1)=   7.255506  celldm(2)=   0.000000  celldm(3)=   0.000000
     celldm(4)=   0.000000  celldm(5)=   0.000000  celldm(6)=   0.000000

     crystal axes: (cart. coord. in units of alat)
               a(1) = (   0.000000   0.712203   0.712203 )
               a(2) = (   0.712203   0.000000   0.712203 )
               a(3) = (   0.712203   0.712203   0.000000 )

     reciprocal axes: (cart. coord. in units 2 pi/alat)
               b(1) = ( -0.702047  0.702047  0.702047 )
               b(2) = (  0.702047 -0.702047  0.702047 )
               b(3) = (  0.702047  0.702047 -0.702047 )

     PseudoPot. # 1 for Si read from file:
     ./Si.upf
     MD5 check sum: 02fab3f35e82123ef5bf1cb05d5b1a5e
     Pseudo is Norm-conserving + core correction, Zval =  4.0
     Generated using ONCVPSP code by D. R. Hamann
     Using radial grid of 1510 points,  6 beta functions with:
                l(1) =   0
                l(2) =   0
                l(3) =   1
                l(4) =   1
                l(5) =   2
                l(6) =   2

     atomic species   valence    mass     pseudopotential
     Si                4.00    28.08500     Si( 1.00)

     48 Sym. Ops., with inversion, found (24 have fractional translation)

   Cartesian axes

     site n.     atom                  positions (alat units)
         1        Si     tau(   1) = (   0.3561013   1.0683038   1.0683038  )
         2        Si     tau(   2) = (   0.0000000  -0.0000000   0.0000000  )

     number of k points=   120  Gaussian smearing, width (Ry)=  0.0100

     Number of k-points >= 100: set verbosity='high' to print them.

     Initial potential from superposition of free atoms

     starting charge       7.9988, renormalised to       8.0000
     Starting wfcs are    8 randomized atomic wfcs

     Self-consistent Calculation

     iteration #  1     ecut=    65.00 Ry     beta= 0.70
     Davidson diagonalization with overlap
     c_bands:  1 eigenvalues not converged
     c_bands:  1 eigenvalues not converged
     c_bands:  1 eigenvalues not converged
     c_bands:  2 eigenvalues not converged
     c_bands:  1 eigenvalues not converged
     c_bands:  1 eigenvalues not converged
     c_bands:  1 eigenvalues not converged
     c_bands:  1 eigenvalues not converged
     c_bands:  1 eigenvalues not converged
     c_bands:  1 eigenvalues not converged
     c_bands:  1 eigenvalues not converged
     c_bands:  1 eigenvalues not converged
     ethr =  1.00E-06,  avg # of iterations = 15.7

[...]

     total energy              =     -16.92527497 Ry
     estimated scf accuracy    <          1.3E-11 Ry

     iteration #  8     ecut=    65.00 Ry     beta= 0.70
     Davidson diagonalization with overlap
     ethr =  1.59E-13,  avg # of iterations =  2.3

     End of self-consistent calculation

     Number of k-points >= 100: set verbosity='high' to print the bands.

     the Fermi energy is     6.3101 ev

!    total energy              =     -16.92527497 Ry
     estimated scf accuracy    <          6.3E-14 Ry
     smearing contrib. (-TS)   =      -0.00000011 Ry
     internal energy E=F+TS    =     -16.92527486 Ry

     The total energy is F=E-TS. E is the sum of the following terms:
     one-electron contribution =       4.80078815 Ry
     hartree contribution      =       1.11368017 Ry
     xc contribution           =      -6.16038050 Ry
     ewald contribution        =     -16.67936268 Ry

     convergence has been achieved in   8 iterations

     Forces acting on atoms (cartesian axes, Ry/au):

     atom    1 type  1   force =     0.00000000    0.00000000   -0.00000000
     atom    2 type  1   force =    -0.00000000   -0.00000000    0.00000000

     Total force =     0.000000     Total SCF correction =     0.000000

     Computing stress (Cartesian axis) and pressure

          total   stress  (Ry/bohr**3)                   (kbar)     P=        0.01
   0.00000004  -0.00000000  -0.00000000            0.01       -0.00       -0.00
  -0.00000000   0.00000004  -0.00000000           -0.00        0.01       -0.00
  -0.00000000  -0.00000000   0.00000004           -0.00       -0.00        0.01

     Writing all to output data dir ./pwscf.save/ :
     XML data file, charge density, pseudopotentials, collected wavefunctions

     General routines

     Parallel routines

   This run was terminated on:  10: 8:14  22Jul2025

   JOB DONE.