     Program PWSCF v.7.5 starts on 19Sep2025 at 13:15:47
        Git branch: dftd4
        Last git commit: 234d1ec8279940b25d9bc7437067330cd0755cf9
        Last git commit date: Fri Jul 18 14:39:03 2025 +0300
        Last git commit subject: Merge branch 'develop' of gitlab.com:miro.ilias/q-

     Waiting for input...
     Reading input from standard input
Warning: card &CELL ignored
Warning: card &FCP ignored
Warning: card &RISM ignored

     Current dimensions of program PWSCF are:
     Max number of different atomic species (ntypx) = 10
     Max number of k-points (npk) =  40000
     Max angular momentum in pseudopotentials (lmaxx) =  4
     Message from routine set_vdw_corr:
     entering vdw_corr = DFT-D3
     Message from routine setup:
     using ibrav=0 with symmetry is DISCOURAGED, use correct ibrav instead

     R & G space division:  proc/nbgrp/npool/nimage =      10
     Subspace diagonalization in iterative solution of the eigenvalue problem:
     a serial algorithm will be used

     Using Slab Decomposition

     bravais-lattice index     =            0
     lattice parameter (alat)  =       9.2823  a.u.
     unit-cell volume          =    2115.1209 (a.u.)^3
     number of atoms/cell      =            9
     number of atomic types    =            2
     number of electrons       =        52.00
     number of Kohn-Sham states=           62
     kinetic-energy cutoff     =      65.0000  Ry
     charge density cutoff     =     260.0000  Ry
     scf convergence threshold =      1.0E-10
     mixing beta               =       0.7000
     number of iterations used =            8  plain     mixing
     energy convergence thresh.=      1.0E-04
     force convergence thresh. =      1.0E-03
     Exchange-correlation= PBE
                           (   1   4   3   4   0   0   0)
     nstep                     =           50

     Non magnetic calculation with spin-orbit

     celldm(1)=   9.282335  celldm(2)=   0.000000  celldm(3)=   0.000000
     celldm(4)=   0.000000  celldm(5)=   0.000000  celldm(6)=   0.000000

     crystal axes: (cart. coord. in units of alat)
               a(1) = (   1.000000   0.000000   0.000000 )
               a(2) = (  -0.500000   0.866025   0.000000 )
               a(3) = (   0.000000   0.000000   3.053746 )

     reciprocal axes: (cart. coord. in units 2 pi/alat)
               b(1) = (  1.000000  0.577350 -0.000000 )
               b(2) = (  0.000000  1.154701  0.000000 )
               b(3) = (  0.000000 -0.000000  0.327467 )

     PseudoPot. # 1 for C  read from file:
     ./C_r.upf
     MD5 check sum: d80ec9912146af6c4c1760317d1f95e9
     Pseudo is Norm-conserving + core correction, Zval =  4.0
     Generated using ONCVPSP code by D. R. Hamann
     Using radial grid of 1248 points,  6 beta functions with:
                l(1) =   0
                l(2) =   0
                l(3) =   1
                l(4) =   1
                l(5) =   1
                l(6) =   1

     PseudoPot. # 2 for Hg read from file:
     ./Hg-sp_r.upf
     MD5 check sum: d85b3e284848a6ef6fce73cef7b59184
     Pseudo is Norm-conserving + core correction, Zval = 20.0
     Generated using ONCVPSP code by D. R. Hamann
     Using radial grid of 1246 points, 12 beta functions with:
                l(1) =   0
                l(2) =   0
                l(3) =   1
                l(4) =   1
                l(5) =   1
                l(6) =   1
                l(7) =   2
                l(8) =   2
                l(9) =   2
               l(10) =   2
               l(11) =   3
               l(12) =   3

     atomic species   valence    mass     pseudopotential
     C                 4.00    12.01100     C ( 1.00)
     Hg               20.00   200.59200     Hg( 1.00)

      6 Sym. Ops. (no inversion) found ( 4 have fractional translation)

   Cartesian axes

     site n.     atom                  positions (alat units)
         1        C      tau(   1) = (   0.0000000   0.0000096   1.5119700  )
         2        C      tau(   2) = (  -0.2499917   0.4330079   1.5119700  )
         3        C      tau(   3) = (   0.5000000   0.0000000   1.5126067  )
         4        C      tau(   4) = (   0.2499916   0.4330079   1.5119700  )
         5        C      tau(   5) = (   0.2499928   0.1443417   1.5122979  )
         6        C      tau(   6) = (  -0.0000001   0.5773419   1.5122979  )
         7        C      tau(   7) = (   0.7500072   0.1443417   1.5122979  )
         8        C      tau(   8) = (   0.4999999   0.5773502   1.5117386  )
         9        Hg     tau(   9) = (   0.4999999   0.5773502   2.2554563  )

     DFT-D3 Dispersion Correction (3-body terms):
       Reference C6 values for interpolation:

         atom   Coordination number   C6
         C          0.000            98.23
         C          0.987            86.49
         C          1.998            58.72
         C          2.999            51.56
         C          3.984            36.41
         Hg         0.000           724.15
         Hg         1.990           597.72

       Values used:

         atom   Coordination number  R0_AB[au]  C6      C8
         C          3.332            2.750     47.90   1385.21
         C          3.332            2.750     47.90   1385.21
         C          3.327            2.750     48.01   1388.45
         C          3.332            2.750     47.90   1385.21
         C          3.328            2.750     47.99   1387.92
         C          3.328            2.750     47.99   1387.92
         C          3.328            2.750     47.99   1387.92
         C          3.343            2.750     47.66   1378.46
         Hg         0.141            3.175    724.15  72691.39

         Molecular C6 ( Ry / a.u.^6 ) =      6734.07

     number of k points=     2  Gaussian smearing, width (Ry)=  0.0100
                       cart. coord. in units 2pi/alat
        k(    1) = (   0.0000000   0.0000000   0.0000000), wk =   0.2500000
        k(    2) = (   0.0000000  -0.5773503   0.0000000), wk =   0.7500000

     Initial potential from superposition of free atoms

     starting charge      51.9996, renormalised to      52.0000

     negative rho (up, down):  1.208E-05 0.000E+00
     Starting wfcs are   84 randomized atomic wfcs

     Self-consistent Calculation

     iteration #  1     ecut=    65.00 Ry     beta= 0.70
     Davidson diagonalization with overlap
     ethr =  1.00E-02,  avg # of iterations =  3.5

     total energy              =    -429.95076825 Ry
     estimated scf accuracy    <       0.79005451 Ry

[...]

     End of self-consistent calculation

          k = 0.0000 0.0000 0.0000 ( 18643 PWs)   bands (ev):

  -117.7143-117.7143 -79.7069 -79.7069 -61.4402 -61.4402 -61.4396 -61.4396
   -23.8731 -23.8731 -18.5783 -18.5783 -18.5771 -18.5771 -18.5771 -18.5771
   -17.5776 -17.5776 -17.5773 -17.5773 -17.5773 -17.5773 -11.9686 -11.9686
   -10.8427 -10.8427 -10.8340 -10.8340 -10.7142 -10.7142 -10.7142 -10.7142
   -10.7141 -10.7141  -9.0198  -9.0198  -9.0136  -9.0136  -8.9944  -8.9944
    -7.2831  -7.2831  -7.2739  -7.2739  -7.1759  -7.1759  -6.6205  -6.6205
    -6.6203  -6.6203  -6.6005  -6.6005  -2.5531  -2.5531  -2.5469  -2.5469
    -2.5442  -2.5442  -1.4550  -1.4550   0.5362   0.5362

[...]

     the Fermi energy is    -5.5490 ev

!    total energy              =    -430.11788926 Ry
     estimated scf accuracy    <          1.6E-11 Ry
     smearing contrib. (-TS)   =      -0.00000000 Ry
     internal energy E=F+TS    =    -430.11788926 Ry

     The total energy is F=E-TS. E is the sum of the following terms:
     one-electron contribution =   -1731.14422133 Ry
     hartree contribution      =     861.15581933 Ry
     xc contribution           =     -89.63514075 Ry
     ewald contribution        =     529.54638956 Ry
     DFT-D3 Dispersion         =      -0.04073608 Ry

     convergence has been achieved in  12 iterations

     Forces acting on atoms (cartesian axes, Ry/au):

     atom    1 type  1   force =    -0.00000000    0.00000007    0.00089394
     atom    2 type  1   force =     0.00000006   -0.00000003    0.00089394
     atom    3 type  1   force =     0.00000000   -0.00000000    0.00061581
     atom    4 type  1   force =    -0.00000006   -0.00000003    0.00089394
     atom    5 type  1   force =     0.00000292   -0.00000169    0.00076461
     atom    6 type  1   force =     0.00000000    0.00000337    0.00076461
     atom    7 type  1   force =    -0.00000292   -0.00000169    0.00076461
     atom    8 type  1   force =     0.00000000   -0.00000000    0.00037968
     atom    9 type  2   force =    -0.00000000   -0.00000000   -0.00597115

     Total force =     0.006351     Total SCF correction =     0.000018

     Computing stress (Cartesian axis) and pressure

          total   stress  (Ry/bohr**3)                   (kbar)     P=        0.11
   0.00002194   0.00000000   0.00000000            3.23        0.00        0.00
   0.00000000   0.00002194  -0.00000000            0.00        3.23       -0.00
   0.00000000   0.00000000  -0.00004172            0.00        0.00       -6.14

     BFGS Geometry Optimization
     Energy error            =      4.0E-05 Ry
     Gradient error          =      6.0E-03 Ry/Bohr

     number of scf cycles    =   1
     number of bfgs steps    =   0

     energy             new  =    -430.1178892629 Ry

     new trust radius        =       0.0059711534 bohr
     new conv_thr            =            1.0E-10 Ry

ATOMIC_POSITIONS (angstrom)
C                0.0000000000        0.0000470933        7.4272698769
C               -1.2279594653        2.1269346875        7.4272698769
C                2.4560000900       -0.0000000000        7.4302503334
C                1.2279588993        2.1269346875        7.4272698769
C                1.2279660502        0.7090057071        7.4288122894
C               -0.0000003780        2.8359051227        7.4288122894
C                3.6840337938        0.7090057071        7.4288122894
C                2.4559997120        2.8359442390        7.4258611248
Hg               2.4559997120        2.8359442390       11.0756420665

     Writing config-only to output data dir ./outputs/c_hg.save/ :
     XML data file
     NEW-OLD atomic charge density approx. for the potential

     negative rho (up, down):  2.668E-08 0.000E+00

[...]

     Threshold (ethr) on eigenvalues was too large:
     Diagonalizing with lowered threshold

     Davidson diagonalization with overlap
     ethr =  1.28E-09,  avg # of iterations =  4.0

[...]

     Energy error            =      4.0E-05 Ry
     Gradient error          =      5.9E-03 Ry/Bohr

[...]

     energy             old  =    -430.1178892629 Ry
     energy             new  =    -430.1179293069 Ry

     CASE: energy            _new < energy            _old

     WARNING: bfgs curvature condition failed, Theta= 0.811
     new trust radius        =       0.0065682687 bohr
     new conv_thr            =            1.0E-12 Ry

[...]

     number of scf cycles    =  11
     number of bfgs steps    =  10

     energy             old  =    -430.1194710656 Ry
     energy             new  =    -430.1196316602 Ry

     CASE: energy            _new < energy            _old

     new trust radius        =       0.0373671823 bohr
     new conv_thr            =            1.0E-12 Ry

ATOMIC_POSITIONS (angstrom)
C               -0.0000000000        0.0001561547        7.4566454481
C               -1.2278650154        2.1268801568        7.4566454481
C                2.4560000900       -0.0000000000        7.4618173020
C                1.2278644494        2.1268801568        7.4566454481
C                1.2279289710        0.7090271148        7.4599315516
C               -0.0000003780        2.8358623073        7.4599315516
C                3.6840708730        0.7090271148        7.4599315516
C                2.4559997120        2.8359442390        7.4516648360
Hg               2.4559997120        2.8359442390       10.8367868865

     Writing config-only to output data dir ./outputs/c_hg.save/ :
     XML data file
     NEW-OLD atomic charge density approx. for the potential

[...]

     Self-consistent Calculation

[...]

     Threshold (ethr) on eigenvalues was too large:
     Diagonalizing with lowered threshold

     Davidson diagonalization with overlap
     ethr =  6.24E-08,  avg # of iterations =  1.5

[...]

     negative rho (up, down):  6.201E-08 0.000E+00

[...]

     total energy              =    -430.11964426 Ry
     estimated scf accuracy    <          6.9E-12 Ry

     iteration #  9     ecut=    65.00 Ry     beta= 0.70
     Davidson diagonalization with overlap
     ethr =  1.00E-13,  avg # of iterations =  2.0

     End of self-consistent calculation

[...]

          k = 0.0000-0.5774 0.0000 ( 18732 PWs)   bands (ev):

  -117.6954-117.6954 -79.6881 -79.6881 -61.4216 -61.4216 -61.4206 -61.4206
   -22.5147 -22.5147 -22.5116 -22.5116 -19.6754 -19.6754 -19.6739 -19.6739
   -14.9331 -14.9331 -14.9326 -14.9326 -13.3905 -13.3905 -13.3897 -13.3897
   -11.8169 -11.8169 -11.8163 -11.8163 -10.8535 -10.8535 -10.8178 -10.8178
   -10.3710 -10.3710 -10.3014 -10.3014  -9.4370  -9.4370  -9.4368  -9.4368
    -9.0075  -9.0075  -8.9698  -8.9698  -8.9524  -8.9524  -7.1721  -7.1721
    -7.1171  -7.1171  -6.3751  -6.3751  -2.1118  -2.1118  -1.5017  -1.5017
    -1.4967  -1.4967  -0.2647  -0.2647   0.6805   0.6805

     the Fermi energy is    -5.5275 ev

!    total energy              =    -430.11964426 Ry
     estimated scf accuracy    <          5.6E-13 Ry
     smearing contrib. (-TS)   =      -0.00000000 Ry
     internal energy E=F+TS    =    -430.11964426 Ry

     The total energy is F=E-TS. E is the sum of the following terms:
     one-electron contribution =   -1841.79258008 Ry
     hartree contribution      =     916.36211133 Ry
     xc contribution           =     -89.63938395 Ry
     ewald contribution        =     584.99408080 Ry
     DFT-D3 Dispersion         =      -0.04387236 Ry

     convergence has been achieved in   9 iterations

     Forces acting on atoms (cartesian axes, Ry/au):

     atom    1 type  1   force =    -0.00000000   -0.00002930   -0.00017509
     atom    2 type  1   force =    -0.00002537    0.00001465   -0.00017509
     atom    3 type  1   force =     0.00000000   -0.00000000    0.00050084
     atom    4 type  1   force =     0.00002537    0.00001465   -0.00017509
     atom    5 type  1   force =     0.00000765   -0.00000442    0.00009208
     atom    6 type  1   force =     0.00000000    0.00000884    0.00009208
     atom    7 type  1   force =    -0.00000765   -0.00000442    0.00009208
     atom    8 type  1   force =     0.00000000    0.00000000   -0.00018446
     atom    9 type  2   force =     0.00000000    0.00000000   -0.00006735

     Total force =     0.000640     Total SCF correction =     0.000009

     Computing stress (Cartesian axis) and pressure

          total   stress  (Ry/bohr**3)                   (kbar)     P=        0.60
   0.00002154   0.00000000   0.00000000            3.17        0.00        0.00
   0.00000000   0.00002154   0.00000000            0.00        3.17        0.00
   0.00000000   0.00000000  -0.00003094            0.00        0.00       -4.55

     Energy error            =      1.3E-05 Ry
     Gradient error          =      5.0E-04 Ry/Bohr

     bfgs converged in  12 scf cycles and  11 bfgs steps
     (criteria: energy <  1.0E-04 Ry, force <  1.0E-03 Ry/Bohr)

     End of BFGS Geometry Optimization

     Final energy             =    -430.1196442627 Ry

     File ./outputs/c_hg.bfgs deleted, as requested
Begin final coordinates

ATOMIC_POSITIONS (angstrom)
C               -0.0000000000        0.0001561547        7.4566454481
C               -1.2278650154        2.1268801568        7.4566454481
C                2.4560000900       -0.0000000000        7.4618173020
C                1.2278644494        2.1268801568        7.4566454481
C                1.2279289710        0.7090271148        7.4599315516
C               -0.0000003780        2.8358623073        7.4599315516
C                3.6840708730        0.7090271148        7.4599315516
C                2.4559997120        2.8359442390        7.4516648360
Hg               2.4559997120        2.8359442390       10.8367868865
End final coordinates

     Writing all to output data dir ./outputs/c_hg.save/ :
     XML data file, charge density, pseudopotentials, collected wavefunctions

     General routines

     Parallel routines

   This run was terminated on:  13:18: 2  19Sep2025

   JOB DONE.