     Program PWSCF v.7.5 starts on 22Sep2025 at 12: 3:52
        Git branch: dftd4
        Last git commit: 234d1ec8279940b25d9bc7437067330cd0755cf9
        Last git commit date: Fri Jul 18 14:39:03 2025 +0300
        Last git commit subject: Merge branch 'develop' of gitlab.com:miro.ilias/q-

     Reading input from espresso.pwi
Warning: card &CELL ignored
Warning: card &FCP ignored
Warning: card &RISM ignored

     Current dimensions of program PWSCF are:
     Max number of different atomic species (ntypx) = 10
     Max number of k-points (npk) =  40000
     Max angular momentum in pseudopotentials (lmaxx) =  4
     Message from routine set_vdw_corr:
     entering vdw_corr = DFT-D3
     Message from routine setup:
     using ibrav=0 with symmetry is DISCOURAGED, use correct ibrav instead

     R & G space division:  proc/nbgrp/npool/nimage =       4
     Subspace diagonalization in iterative solution of the eigenvalue problem:
     a serial algorithm will be used

     Using Slab Decomposition

     bravais-lattice index     =            0
     lattice parameter (alat)  =       9.2823  a.u.
     unit-cell volume          =    2115.1209 (a.u.)^3
     number of atoms/cell      =            9
     number of atomic types    =            2
     number of electrons       =        52.00
     number of Kohn-Sham states=           62
     kinetic-energy cutoff     =      65.0000  Ry
     charge density cutoff     =     260.0000  Ry
     scf convergence threshold =      1.0E-10
     mixing beta               =       0.7000
     number of iterations used =            8  plain     mixing
     Exchange-correlation= PBE
                           (   1   4   3   4   0   0   0)
     Non magnetic calculation with spin-orbit

     celldm(1)=   9.282335  celldm(2)=   0.000000  celldm(3)=   0.000000
     celldm(4)=   0.000000  celldm(5)=   0.000000  celldm(6)=   0.000000

     crystal axes: (cart. coord. in units of alat)
               a(1) = (   1.000000   0.000000   0.000000 )
               a(2) = (  -0.500000   0.866025   0.000000 )
               a(3) = (   0.000000   0.000000   3.053746 )

     reciprocal axes: (cart. coord. in units 2 pi/alat)
               b(1) = (  1.000000  0.577350 -0.000000 )
               b(2) = (  0.000000  1.154701  0.000000 )
               b(3) = (  0.000000 -0.000000  0.327467 )

     PseudoPot. # 1 for C  read from file:
     ./C_r.upf
     MD5 check sum: d80ec9912146af6c4c1760317d1f95e9
     Pseudo is Norm-conserving + core correction, Zval =  4.0
     Generated using ONCVPSP code by D. R. Hamann
     Using radial grid of 1248 points,  6 beta functions with:
                l(1) =   0
                l(2) =   0
                l(3) =   1
                l(4) =   1
                l(5) =   1
                l(6) =   1

     PseudoPot. # 2 for Hg read from file:
     ./Hg-sp_r.upf
     MD5 check sum: d85b3e284848a6ef6fce73cef7b59184
     Pseudo is Norm-conserving + core correction, Zval = 20.0
     Generated using ONCVPSP code by D. R. Hamann
     Using radial grid of 1246 points, 12 beta functions with:
                l(1) =   0
                l(2) =   0
                l(3) =   1
                l(4) =   1
                l(5) =   1
                l(6) =   1
                l(7) =   2
                l(8) =   2
                l(9) =   2
               l(10) =   2
               l(11) =   3
               l(12) =   3

     atomic species   valence    mass     pseudopotential
     C                 4.00    12.01100     C ( 1.00)
     Hg               20.00   200.59200     Hg( 1.00)

      6 Sym. Ops. (no inversion) found ( 4 have fractional translation)

   Cartesian axes

     site n.     atom                  positions (alat units)
         1        C      tau(   1) = (   0.0000000   0.0000302   1.5180335  )
         2        C      tau(   2) = (  -0.2499739   0.4329976   1.5180335  )
         3        C      tau(   3) = (   0.5000000   0.0000000   1.5194106  )
         4        C      tau(   4) = (   0.2499738   0.4329976   1.5180335  )
         5        C      tau(   5) = (   0.2499859   0.1443457   1.5188348  )
         6        C      tau(   6) = (  -0.0000001   0.5773340   1.5188348  )
         7        C      tau(   7) = (   0.7500140   0.1443457   1.5188348  )
         8        C      tau(   8) = (   0.4999999   0.5773502   1.5169415  )
         9        Hg     tau(   9) = (   0.4999999   0.5773502   2.2056484  )

     DFT-D3 Dispersion Correction (3-body terms):
       Reference C6 values for interpolation:

         atom   Coordination number   C6
         C          0.000            98.23
         C          0.987            86.49
         C          1.998            58.72
         C          2.999            51.56
         C          3.984            36.41
         Hg         0.000           724.15
         Hg         1.990           597.72

       Values used:

         atom   Coordination number  R0_AB[au]  C6      C8
         C          3.343            2.750     47.65   1378.25
         C          3.343            2.750     47.65   1378.25
         C          3.330            2.750     47.94   1386.64
         C          3.343            2.750     47.65   1378.25
         C          3.332            2.750     47.90   1385.46
         C          3.332            2.750     47.90   1385.46
         C          3.332            2.750     47.90   1385.46
         C          3.373            2.750     46.92   1357.06
         Hg         0.218            3.175    724.15  72691.35

         Molecular C6 ( Ry / a.u.^6 ) =      6712.34

     number of k points=     2  Gaussian smearing, width (Ry)=  0.0100
                       cart. coord. in units 2pi/alat
        k(    1) = (   0.0000000   0.0000000   0.0000000), wk =   0.2500000
        k(    2) = (   0.0000000  -0.5773503   0.0000000), wk =   0.7500000

     Initial potential from superposition of free atoms

     starting charge      51.9996, renormalised to      52.0000

     negative rho (up, down):  1.402E-05 0.000E+00
     Starting wfcs are   84 randomized atomic wfcs

     Self-consistent Calculation

     iteration #  1     ecut=    65.00 Ry     beta= 0.70
     Davidson diagonalization with overlap
     ethr =  1.00E-02,  avg # of iterations =  3.0

     total energy              =    -429.96180850 Ry
     estimated scf accuracy    <       0.77843132 Ry

[...]

     total energy              =    -430.11964543 Ry
     estimated scf accuracy    <          9.2E-10 Ry

     iteration # 12     ecut=    65.00 Ry     beta= 0.70
     Davidson diagonalization with overlap
     ethr =  1.76E-12,  avg # of iterations =  3.5

     End of self-consistent calculation

          k = 0.0000 0.0000 0.0000 ( 18643 PWs)   bands (ev):

  -117.6952-117.6952 -79.6879 -79.6879 -61.4214 -61.4214 -61.4204 -61.4204
   -23.9883 -23.9883 -18.6946 -18.6946 -18.6916 -18.6916 -18.6916 -18.6916
   -17.6927 -17.6927 -17.6920 -17.6920 -17.6920 -17.6920 -12.1070 -12.1070
   -10.8342 -10.8342 -10.8330 -10.8330 -10.8291 -10.8291 -10.8213 -10.8213
   -10.8114 -10.8114  -9.0035  -9.0035  -9.0018  -9.0018  -8.9808  -8.9808
    -7.3986  -7.3986  -7.3895  -7.3895  -7.1848  -7.1848  -6.7341  -6.7341
    -6.7336  -6.7336  -6.6676  -6.6676  -2.6835  -2.6835  -2.6715  -2.6715
    -2.6667  -2.6667  -1.3926  -1.3926   0.3199   0.3199

          k = 0.0000-0.5774 0.0000 ( 18732 PWs)   bands (ev):

  -117.6952-117.6952 -79.6879 -79.6879 -61.4214 -61.4214 -61.4204 -61.4204
   -22.5158 -22.5158 -22.5127 -22.5127 -19.6766 -19.6766 -19.6750 -19.6750
   -14.9342 -14.9342 -14.9337 -14.9337 -13.3916 -13.3916 -13.3908 -13.3908
   -11.8180 -11.8180 -11.8175 -11.8175 -10.8538 -10.8538 -10.8177 -10.8177
   -10.3725 -10.3725 -10.3023 -10.3023  -9.4381  -9.4381  -9.4380  -9.4380
    -9.0074  -9.0074  -8.9696  -8.9696  -8.9522  -8.9522  -7.1733  -7.1733
    -7.1181  -7.1181  -6.3745  -6.3745  -2.1114  -2.1114  -1.5030  -1.5030
    -1.4979  -1.4979  -0.2640  -0.2640   0.6808   0.6808

     the Fermi energy is    -5.5272 ev

!    total energy              =    -430.11964543 Ry
     estimated scf accuracy    <          2.2E-11 Ry
     smearing contrib. (-TS)   =      -0.00000000 Ry
     internal energy E=F+TS    =    -430.11964543 Ry

     The total energy is F=E-TS. E is the sum of the following terms:
     one-electron contribution =   -1842.99596774 Ry
     hartree contribution      =     916.96267375 Ry
     xc contribution           =     -89.63943027 Ry
     ewald contribution        =     585.59698560 Ry
     DFT-D3 Dispersion         =      -0.04390677 Ry

     convergence has been achieved in  12 iterations

     Forces acting on atoms (cartesian axes, Ry/au):

     atom    1 type  1   force =    -0.00000000    0.00000005   -0.00002160
     atom    2 type  1   force =     0.00000004   -0.00000003   -0.00002160
     atom    3 type  1   force =     0.00000000    0.00000000   -0.00000949
     atom    4 type  1   force =    -0.00000004   -0.00000003   -0.00002160
     atom    5 type  1   force =    -0.00000036    0.00000021    0.00001856
     atom    6 type  1   force =    -0.00000000   -0.00000042    0.00001856
     atom    7 type  1   force =     0.00000036    0.00000021    0.00001856
     atom    8 type  1   force =     0.00000000    0.00000000    0.00001615
     atom    9 type  2   force =     0.00000000    0.00000000    0.00000248

     Total force =     0.000053     Total SCF correction =     0.000026
     SCF correction compared to forces is large: reduce conv_thr to get better values

     Computing stress (Cartesian axis) and pressure

          total   stress  (Ry/bohr**3)                   (kbar)     P=        0.60
   0.00002154   0.00000000   0.00000000            3.17        0.00        0.00
   0.00000000   0.00002154  -0.00000000            0.00        3.17       -0.00
   0.00000000   0.00000000  -0.00003077            0.00        0.00       -4.53

     Writing all to output data dir ./tmp/c_hg.save/ :
     XML data file, charge density, pseudopotentials, collected wavefunctions

     General routines

     Parallel routines

   This run was terminated on:  12: 4:12  22Sep2025

   JOB DONE.