     Program PWSCF v.7.4.1 starts on  6Jul2025 at  6:46:51
        Git branch: develop
        Last git commit: bba877166b4f2dac149e30abe16ffa6c336d311b
        Last git commit date: Fri Jun 20 10:25:57 2025 +0000
        Last git commit subject: Merge branch 'fix_ccgsolve' into 'develop'

     Waiting for input...
     Reading input from standard input

     Current dimensions of program PWSCF are:
     Max number of different atomic species (ntypx) = 10
     Max number of k-points (npk) =  40000
     Max angular momentum in pseudopotentials (lmaxx) =  4

     R & G space division:  proc/nbgrp/npool/nimage =      10
     Subspace diagonalization in iterative solution of the eigenvalue problem:
     one sub-group per band group will be used

     Using Slab Decomposition

     bravais-lattice index     =            0
     lattice parameter (alat)  =      24.6592  a.u.
     unit-cell volume          =   23302.3946 (a.u.)^3
     number of atoms/cell      =           55
     number of atomic types    =            2
     number of electrons       =       886.00
     number of Kohn-Sham states=         1064
     kinetic-energy cutoff     =      60.0000  Ry
     charge density cutoff     =     240.0000  Ry
     scf convergence threshold =      1.0E-09
     mixing beta               =       0.2000
     number of iterations used =            8  plain     mixing
     energy convergence thresh.=      1.0E-08
     force convergence thresh. =      1.0E-04
     Exchange-correlation= PBE
                           (   1   4   3   4   0   0   0)
     nstep                     =            2

     Non magnetic calculation with spin-orbit

     celldm(1)=  24.659173  celldm(2)=   0.000000  celldm(3)=   0.000000
     celldm(4)=   0.000000  celldm(5)=   0.000000  celldm(6)=   0.000000

     crystal axes: (cart. coord. in units of alat)
               a(1) = (   1.000000   0.000000   0.000000 )
               a(2) = (   0.000000   1.159736   0.000000 )
               a(3) = (   0.000000   0.000000   1.340003 )

     reciprocal axes: (cart. coord. in units 2 pi/alat)
               b(1) = (  1.000000 -0.000000  0.000000 )
               b(2) = ( -0.000000  0.862265  0.000000 )
               b(3) = (  0.000000  0.000000  0.746267 )

     PseudoPot. # 1 for Se read from file:
     ./Se_r.upf
     MD5 check sum: cb2cefba1335ec1a0ef320de5a6fd81a
     Pseudo is Norm-conserving + core correction, Zval = 16.0
     Generated using ONCVPSP code by D. R. Hamann
     Using radial grid of 1214 points, 10 beta functions with:
                l(1) =   0
                l(2) =   0
                l(3) =   1
                l(4) =   1
                l(5) =   1
                l(6) =   1
                l(7) =   2
                l(8) =   2
                l(9) =   2
               l(10) =   2

     PseudoPot. # 2 for Fl read from file:
     ./Fl-6spd_r.upf
     MD5 check sum: b85b9b71a88d70a023db0b659bf16840
     Pseudo is Norm-conserving + core correction, Zval = 22.0
     Generated using ONCVPSP code by D. R. Hamann
     Using radial grid of 2000 points, 12 beta functions with:
                l(1) =   0
                l(2) =   0
                l(3) =   1
                l(4) =   1
                l(5) =   1
                l(6) =   1
                l(7) =   2
                l(8) =   2
                l(9) =   2
               l(10) =   2
               l(11) =   3
               l(12) =   3

     atomic species   valence    mass     pseudopotential
     Se               16.00    78.96000     Se( 1.00)
     Fl               22.00   289.00000     Fl( 1.00)

     No symmetry found

   Cartesian axes

     site n.     atom                  positions (alat units)
         1        Se     tau(   1) = (   0.1265139   0.1290319   0.2899348  )
         2        Se     tau(   2) = (   0.2898730   0.1222560   0.5698847  )
         3        Se     tau(   3) = (   0.2424917   0.2574301   0.2214487  )
         4        Se     tau(   4) = (   0.0739760   0.2586025   0.5065604  )
         5        Se     tau(   5) = (   0.1310203   0.0010567   0.1588305  )
         6        Se     tau(   6) = (   0.2881107  -0.0045116   0.4367615  )
         7        Se     tau(   7) = (   0.4598471   0.1290321   0.2899346  )
         8        Se     tau(   8) = (   0.6346464   0.1264925   0.5702974  )
         9        Se     tau(   9) = (   0.5758247   0.2574302   0.2214482  )
        10        Se     tau(  10) = (   0.4001475   0.2530642   0.5076568  )
        11        Se     tau(  11) = (   0.4643531   0.0010568   0.1588304  )
        12        Se     tau(  12) = (   0.6317777  -0.0006482   0.4393781  )
        13        Se     tau(  13) = (   0.7931807   0.1290319   0.2899341  )
        14        Se     tau(  14) = (   0.9622465   0.1273954   0.5664070  )
        15        Se     tau(  15) = (   0.9091586   0.2574301   0.2214482  )
        16        Se     tau(  16) = (   0.7430044   0.2593948   0.5061921  )
        17        Se     tau(  17) = (   0.7976871   0.0010567   0.1588299  )
        18        Se     tau(  18) = (   0.9639387   0.0080696   0.4269225  )
        19        Se     tau(  19) = (   0.1264983   0.5155936   0.2899296  )
        20        Se     tau(  20) = (   0.2642202   0.4986246   0.5650334  )
        21        Se     tau(  21) = (   0.2424688   0.6440249   0.2214632  )
        22        Se     tau(  22) = (   0.0696216   0.6422763   0.5067810  )
        23        Se     tau(  23) = (   0.1310206   0.3876536   0.1587981  )
        24        Se     tau(  24) = (   0.2826288   0.3741124   0.4309008  )
        25        Se     tau(  25) = (   0.4598315   0.5155937   0.2899294  )
        26        Se     tau(  26) = (   0.6341014   0.5196800   0.5643143  )
        27        Se     tau(  27) = (   0.5758018   0.6440250   0.2214627  )
        28        Se     tau(  28) = (   0.3697647   0.6329002   0.5038083  )
        29        Se     tau(  29) = (   0.4643534   0.3876537   0.1587979  )
        30        Se     tau(  30) = (   0.6258541   0.3871753   0.4381309  )
        31        Se     tau(  31) = (   0.7931651   0.5155936   0.2899289  )
        32        Se     tau(  32) = (   0.9564171   0.5117758   0.5702177  )
        33        Se     tau(  33) = (   0.9091357   0.6440249   0.2214627  )
        34        Se     tau(  34) = (   0.7590143   0.6395492   0.5020283  )
        35        Se     tau(  35) = (   0.7976875   0.3876535   0.1587975  )
        36        Se     tau(  36) = (   0.9581180   0.3862323   0.4364536  )
        37        Se     tau(  37) = (   0.1264959   0.9021877   0.2899756  )
        38        Se     tau(  38) = (   0.2465976   0.8943075   0.5600303  )
        39        Se     tau(  39) = (   0.2424890   1.0305767   0.2214989  )
        40        Se     tau(  40) = (   0.0822127   1.0376567   0.4923804  )
        41        Se     tau(  41) = (   0.1310011   0.7742540   0.1588314  )
        42        Se     tau(  42) = (   0.2614756   0.7654932   0.4262535  )
        43        Se     tau(  43) = (   0.4598291   0.9021878   0.2899754  )
        44        Se     tau(  44) = (   0.6889943   0.9030670   0.5652884  )
        45        Se     tau(  45) = (   0.5758220   1.0305769   0.2214984  )
        46        Se     tau(  46) = (   0.3812438   1.0129064   0.5189388  )
        47        Se     tau(  47) = (   0.4643340   0.7742541   0.1588312  )
        48        Se     tau(  48) = (   0.6537216   0.7769724   0.4336812  )
        49        Se     tau(  49) = (   0.7931627   0.9021876   0.2899749  )
        50        Se     tau(  50) = (   0.9656118   0.9089626   0.5593483  )
        51        Se     tau(  51) = (   0.9091559   1.0305767   0.2214984  )
        52        Se     tau(  52) = (   0.7731218   1.0458403   0.4884361  )
        53        Se     tau(  53) = (   0.7976680   0.7742539   0.1588308  )
        54        Se     tau(  54) = (   0.9585930   0.7747748   0.4343037  )
        55        Fl     tau(  55) = (   0.4803595   0.8097371   0.6223285  )

     number of k points=     4  Gaussian smearing, width (Ry)=  0.0200
                       cart. coord. in units 2pi/alat
        k(    1) = (   0.0000000   0.0000000   0.0000000), wk =   0.2500000
        k(    2) = (   0.0000000  -0.4311326   0.0000000), wk =   0.2500000
        k(    3) = (  -0.5000000   0.0000000   0.0000000), wk =   0.2500000
        k(    4) = (  -0.5000000  -0.4311326   0.0000000), wk =   0.2500000

     Initial potential from superposition of free atoms

     starting charge     885.9890, renormalised to     886.0000

     negative rho (up, down):  7.547E-03 0.000E+00
     Starting wfcs are  998 randomized atomic wfcs +   66 random wfcs

     Self-consistent Calculation

     iteration #  1     ecut=    60.00 Ry     beta= 0.20
     Davidson diagonalization with overlap
     ethr =  1.00E-02,  avg # of iterations =  7.5

     Threshold (ethr) on eigenvalues was too large:
     Diagonalizing with lowered threshold

     Davidson diagonalization with overlap
     ethr =  9.82E-05,  avg # of iterations = 11.2

     negative rho (up, down):  5.774E-03 0.000E+00

     total energy              =  -13470.53514509 Ry
     estimated scf accuracy    <       0.86952773 Ry

[...]

     iteration #  4     ecut=    60.00 Ry     beta= 0.20
     Davidson diagonalization with overlap
     c_bands:  2 eigenvalues not converged
     c_bands:  1 eigenvalues not converged
     ethr =  1.96E-05,  avg # of iterations = 14.2

[...]

     iteration #  5     ecut=    60.00 Ry     beta= 0.20
     Davidson diagonalization with overlap
     c_bands:  3 eigenvalues not converged
     ethr =  3.76E-06,  avg # of iterations = 14.8

[...]

     negative rho (up, down):  9.195E-07 0.000E+00

[...]

     End of self-consistent calculation

          k = 0.0000 0.0000 0.0000 (182899 PWs)   bands (ev):

  -160.9085-160.9085-117.7440-117.7440 -64.7368 -64.7368 -64.7221 -64.7221
   -53.9626 -53.9626 -53.9605 -53.9605 -53.9082 -53.9082 -53.8894 -53.8894
   -53.8835 -53.8835 -53.8782 -53.8782 -53.8575 -53.8575 -53.8390 -53.8390
   -53.8335 -53.8335 -53.8287 -53.8287 -53.8226 -53.8226 -53.8189 -53.8189
   -53.8176 -53.8176 -53.8136 -53.8136 -53.8131 -53.8131 -53.8065 -53.8065
   -53.8050 -53.8050 -53.8042 -53.8042 -53.8030 -53.8030 -53.7997 -53.7997
   -53.7984 -53.7984 -53.7858 -53.7858 -53.7831 -53.7831 -53.7766 -53.7766
   -53.7711 -53.7711 -53.7638 -53.7638 -53.7597 -53.7597 -53.7585 -53.7585
   -53.7549 -53.7549 -53.7536 -53.7536 -53.7348 -53.7348 -53.7332 -53.7332
   -53.7324 -53.7324 -53.7308 -53.7308 -53.7273 -53.7273 -53.7240 -53.7240
   -53.7213 -53.7213 -53.7205 -53.7205 -53.7190 -53.7190 -53.7140 -53.7140
   -53.7118 -53.7118 -53.7047 -53.7047 -53.7023 -53.7023 -53.6989 -53.6989
   -53.6858 -53.6858 -53.6776 -53.6776 -53.6720 -53.6720 -53.6525 -53.6525
   -53.6465 -53.6465 -53.6450 -53.6450 -53.6398 -53.6398 -53.6390 -53.6390
   -53.6313 -53.6313 -53.6302 -53.6302 -53.6225 -53.6225 -53.6171 -53.6171
   -53.6160 -53.6160 -53.6147 -53.6147 -53.5959 -53.5959 -53.5826 -53.5826
   -53.5812 -53.5812 -53.5757 -53.5757 -53.5640 -53.5640 -53.5584 -53.5584
   -53.5541 -53.5541 -53.5538 -53.5538 -53.5483 -53.5483 -53.5476 -53.5476
[...]
Se              10.0883814498       13.6475338962        6.3735472958
Se              10.4088279598       10.1032953896        2.0725941285    0   0   0
Se              12.5086060700       10.1100753150        5.6672980876
Fl               6.2682807350       10.5663944718        8.1208137142

     Writing config-only to output data dir ./pwscf.save/ :
     XML data file
     NEW-OLD atomic charge density approx. for the potential

     Self-consistent Calculation

[...]

     Threshold (ethr) on eigenvalues was too large:
     Diagonalizing with lowered threshold

     Davidson diagonalization with overlap
     ethr =  1.19E-10,  avg # of iterations =  5.2

[...]

     total energy              =  -13470.43026813 Ry
     estimated scf accuracy    <          1.8E-09 Ry

     iteration #  7     ecut=    60.00 Ry     beta= 0.20
     Davidson diagonalization with overlap
     ethr =  2.08E-13,  avg # of iterations =  2.0

     End of self-consistent calculation

[...]

          k = 0.0000-0.4311 0.0000 (182866 PWs)   bands (ev):

[...]

          k =-0.5000-0.4311 0.0000 (182904 PWs)   bands (ev):

  -160.9086-160.9086-117.7441-117.7441 -64.7369 -64.7369 -64.7223 -64.7223
   -53.9628 -53.9628 -53.9610 -53.9610 -53.9083 -53.9083 -53.8896 -53.8896
   -53.8839 -53.8839 -53.8785 -53.8785 -53.8577 -53.8577 -53.8391 -53.8391
   -53.8332 -53.8332 -53.8289 -53.8289 -53.8225 -53.8225 -53.8191 -53.8191
   -53.8180 -53.8180 -53.8136 -53.8136 -53.8124 -53.8124 -53.8062 -53.8062
   -53.8054 -53.8054 -53.8044 -53.8044 -53.8023 -53.8023 -53.8000 -53.8000
   -53.7988 -53.7988 -53.7858 -53.7858 -53.7829 -53.7829 -53.7770 -53.7770
   -53.7709 -53.7709 -53.7636 -53.7636 -53.7595 -53.7595 -53.7587 -53.7587
   -53.7546 -53.7546 -53.7536 -53.7536 -53.7351 -53.7351 -53.7333 -53.7333
   -53.7324 -53.7324 -53.7311 -53.7311 -53.7274 -53.7274 -53.7240 -53.7240
   -53.7213 -53.7213 -53.7206 -53.7206 -53.7194 -53.7194 -53.7147 -53.7147
   -53.7119 -53.7119 -53.7051 -53.7051 -53.7024 -53.7024 -53.6992 -53.6992
   -53.6856 -53.6856 -53.6774 -53.6774 -53.6726 -53.6726 -53.6527 -53.6527
   -53.6469 -53.6469 -53.6454 -53.6454 -53.6401 -53.6401 -53.6389 -53.6389
   -53.6318 -53.6318 -53.6302 -53.6302 -53.6227 -53.6227 -53.6178 -53.6178
   -53.6161 -53.6161 -53.6147 -53.6147 -53.5959 -53.5959 -53.5835 -53.5835
   -53.5806 -53.5806 -53.5757 -53.5757 -53.5637 -53.5637 -53.5584 -53.5584
   -53.5544 -53.5544 -53.5530 -53.5530 -53.5484 -53.5484 -53.5475 -53.5475
   -53.5450 -53.5450 -53.5442 -53.5442 -53.5426 -53.5426 -53.5381 -53.5381
   -53.5276 -53.5276 -53.5265 -53.5265 -53.5250 -53.5250 -53.5232 -53.5232
   -53.5219 -53.5219 -53.5109 -53.5109 -53.5084 -53.5084 -53.5015 -53.5015
   -53.4959 -53.4959 -53.4941 -53.4941 -53.4840 -53.4840 -53.4771 -53.4771
   -53.4750 -53.4750 -53.4670 -53.4670 -53.4637 -53.4637 -53.4617 -53.4617
   -53.4568 -53.4568 -53.4493 -53.4493 -53.4480 -53.4480 -53.4467 -53.4467
   -53.4462 -53.4462 -53.4419 -53.4419 -53.4335 -53.4335 -53.4315 -53.4315
   -53.4289 -53.4289 -53.4118 -53.4118 -53.4070 -53.4070 -53.3709 -53.3709
   -53.3684 -53.3684 -53.3673 -53.3673 -53.3658 -53.3658 -53.3649 -53.3649
   -53.3543 -53.3543 -53.3480 -53.3480 -53.3060 -53.3060 -53.2451 -53.2451
   -53.1109 -53.1109 -53.1056 -53.1056 -53.0586 -53.0586 -53.0308 -53.0308
   -53.0283 -53.0283 -53.0252 -53.0252 -53.0067 -53.0067 -52.9897 -52.9897
   -52.9798 -52.9798 -52.9783 -52.9783 -52.9764 -52.9764 -52.9675 -52.9675
   -52.9671 -52.9671 -52.9642 -52.9642 -52.9603 -52.9603 -52.9571 -52.9571
   -52.9528 -52.9528 -52.9523 -52.9523 -52.9505 -52.9505 -52.9457 -52.9457
   -52.9429 -52.9429 -52.9320 -52.9320 -52.9290 -52.9290 -52.9212 -52.9212
   -52.9178 -52.9178 -52.9118 -52.9118 -52.9084 -52.9084 -52.9043 -52.9043
   -52.9028 -52.9028 -52.9012 -52.9012 -52.9000 -52.9000 -52.8895 -52.8895
   -52.8808 -52.8808 -52.8799 -52.8799 -52.8744 -52.8744 -52.8724 -52.8724
   -52.8698 -52.8698 -52.8683 -52.8683 -52.8640 -52.8640 -52.8631 -52.8631
   -52.8620 -52.8620 -52.8541 -52.8541 -52.8476 -52.8476 -52.8416 -52.8416
   -52.8371 -52.8371 -52.8353 -52.8353 -52.8342 -52.8342 -52.8184 -52.8184
   -52.8177 -52.8177 -52.8159 -52.8159 -52.8020 -52.8020 -52.8006 -52.8006
   -52.7960 -52.7960 -52.7837 -52.7837 -52.7830 -52.7830 -52.7822 -52.7822
   -52.7819 -52.7819 -52.7746 -52.7746 -52.7704 -52.7704 -52.7634 -52.7634
   -52.7613 -52.7613 -52.7582 -52.7582 -52.7561 -52.7561 -52.7517 -52.7517
   -52.7446 -52.7446 -52.7393 -52.7393 -52.7360 -52.7360 -52.7354 -52.7354
   -52.7346 -52.7346 -52.7339 -52.7339 -52.7324 -52.7324 -52.7315 -52.7315
   -52.7306 -52.7306 -52.7293 -52.7293 -52.7289 -52.7289 -52.7262 -52.7262
   -52.7182 -52.7182 -52.7169 -52.7169 -52.7140 -52.7140 -52.7128 -52.7128
   -52.7075 -52.7075 -52.7002 -52.7002 -52.6986 -52.6986 -52.6957 -52.6957
   -52.6894 -52.6894 -52.6884 -52.6884 -52.6855 -52.6855 -52.6759 -52.6759
   -52.6710 -52.6710 -52.6698 -52.6698 -52.6689 -52.6689 -52.6682 -52.6682
   -52.6584 -52.6584 -52.6570 -52.6570 -52.6549 -52.6549 -52.6543 -52.6543
   -52.6493 -52.6493 -52.6460 -52.6460 -52.6434 -52.6434 -52.6429 -52.6429
   -52.6418 -52.6418 -52.6402 -52.6402 -52.6382 -52.6382 -52.6370 -52.6370
   -52.6346 -52.6346 -52.6329 -52.6329 -52.6319 -52.6319 -52.6296 -52.6296
   -52.6270 -52.6270 -52.6257 -52.6257 -52.6247 -52.6247 -52.6226 -52.6226
   -52.6181 -52.6181 -52.6167 -52.6167 -52.6150 -52.6150 -52.6104 -52.6104
   -52.6071 -52.6071 -52.6014 -52.6014 -52.6001 -52.6001 -52.5990 -52.5990
   -52.5980 -52.5980 -52.5969 -52.5969 -52.5885 -52.5885 -52.5829 -52.5829
   -52.5790 -52.5790 -52.5725 -52.5725 -52.5691 -52.5691 -52.5652 -52.5652
[...]
    -2.5089  -2.5089  -2.4497  -2.4497  -2.4033  -2.4033  -2.3761  -2.3761
    -2.3537  -2.3537  -2.3389  -2.3389  -2.3229  -2.3229  -2.2918  -2.2918
    -2.2695  -2.2695  -2.2559  -2.2559  -2.2227  -2.2227  -2.1942  -2.1942
    -2.1751  -2.1751  -2.1447  -2.1447  -2.0826  -2.0826  -2.0492  -2.0492
    -1.9748  -1.9748  -1.8820  -1.8820  -1.8176  -1.8176  -1.7494  -1.7494
    -1.7330  -1.7330  -1.5391  -1.5391  -1.5016  -1.5016  -1.4902  -1.4902
    -1.4605  -1.4605  -0.2802  -0.2802   0.2095   0.2095   0.8208   0.8208
     0.8610   0.8610   0.8682   0.8682   0.9374   0.9374   1.0481   1.0481
     1.0632   1.0632   1.0954   1.0954   1.1096   1.1096   1.1781   1.1781
     1.1999   1.1999   1.2222   1.2222   1.2587   1.2587   1.4079   1.4079
     1.4173   1.4173   1.4311   1.4311   1.4594   1.4594   1.4771   1.4771
     1.5195   1.5195   1.5546   1.5546   1.5945   1.5945   1.6285   1.6285
     1.7550   1.7550   1.8399   1.8399   1.8606   1.8606   1.8917   1.8917
     1.9366   1.9367   1.9903   1.9903   2.0402   2.0402   2.0733   2.0733
     2.1134   2.1134   2.1802   2.1802   2.2122   2.2123   2.2552   2.2554

     the Fermi energy is    -4.1480 ev

!    total energy              =  -13470.43026814 Ry
     estimated scf accuracy    <          4.6E-10 Ry
     smearing contrib. (-TS)   =      -0.00243353 Ry
     internal energy E=F+TS    =  -13470.42783461 Ry

     The total energy is F=E-TS. E is the sum of the following terms:
     one-electron contribution =  -62112.77037188 Ry
     hartree contribution      =   30770.77789200 Ry
     xc contribution           =   -2674.58019852 Ry
     ewald contribution        =   20546.14484380 Ry

     convergence has been achieved in   7 iterations

     Forces acting on atoms (cartesian axes, Ry/au):

     atom    1 type  1   force =    -0.00187517    0.00096200    0.00160437
     atom    2 type  1   force =    -0.00004746   -0.00000573    0.00017040
     atom    3 type  1   force =     0.00548565   -0.00141529   -0.00671181
     atom    4 type  1   force =     0.00035855    0.00005227   -0.00018179
     atom    5 type  1   force =     0.00045866    0.00005339    0.00213313
     atom    6 type  1   force =     0.00015895    0.00005808    0.00006847
     atom    7 type  1   force =    -0.00158011   -0.00249329    0.00066702
     atom    8 type  1   force =     0.00010786    0.00000510   -0.00027165
     atom    9 type  1   force =     0.00052645   -0.00077112    0.00092032
     atom   10 type  1   force =     0.00006051   -0.00007203    0.00008723
     atom   11 type  1   force =    -0.00050099    0.00082901    0.00178923
     atom   12 type  1   force =     0.00018696   -0.00035061    0.00031355
     atom   13 type  1   force =    -0.00474156    0.00278853   -0.00095550
     atom   14 type  1   force =    -0.00001915    0.00016371    0.00020955
     atom   15 type  1   force =     0.00162587   -0.00012713    0.00007695
     atom   16 type  1   force =     0.00009443   -0.00048131    0.00002329
     atom   17 type  1   force =    -0.00151939    0.00121609    0.00117278
     atom   18 type  1   force =     0.00010200   -0.00037514   -0.00008903
     atom   19 type  1   force =    -0.00262145   -0.00262355    0.00161667
     atom   20 type  1   force =    -0.00004030    0.00024986   -0.00030378
     atom   21 type  1   force =     0.00384537   -0.00288161   -0.00167842
     atom   22 type  1   force =     0.00038099   -0.00001088   -0.00015887
     atom   23 type  1   force =    -0.00070516    0.00099854    0.00141336
     atom   24 type  1   force =    -0.00028312   -0.00025315   -0.00028408
     atom   25 type  1   force =    -0.00145565   -0.00118196   -0.00206382
     atom   26 type  1   force =     0.00043797    0.00020399   -0.00026468
     atom   27 type  1   force =     0.00114171    0.00019182    0.00267674
     atom   28 type  1   force =     0.00043229   -0.00011651   -0.00009949
     atom   29 type  1   force =     0.00053516    0.00134294    0.00283825
     atom   30 type  1   force =    -0.00000483    0.00009041    0.00015653
     atom   31 type  1   force =    -0.00054023   -0.00124729    0.00231093
     atom   32 type  1   force =     0.00008385    0.00015775    0.00014672
     atom   33 type  1   force =     0.00054362   -0.00020116    0.00005597
     atom   34 type  1   force =    -0.00026154   -0.00024480    0.00051291
     atom   35 type  1   force =    -0.00159936   -0.00117583   -0.00175589
     atom   36 type  1   force =    -0.00014361   -0.00011868   -0.00012285
     atom   37 type  1   force =    -0.00639594    0.00085879   -0.00036323
     atom   38 type  1   force =     0.00001270    0.00025236   -0.00031717
     atom   39 type  1   force =     0.00461194    0.00245175   -0.00240115
     atom   40 type  1   force =     0.00011156   -0.00004302    0.00022394
     atom   41 type  1   force =    -0.00219238    0.00028081   -0.00229120
     atom   42 type  1   force =    -0.00024676    0.00025950   -0.00013668
     atom   43 type  1   force =     0.00088752   -0.00181786   -0.00218801
     atom   44 type  1   force =    -0.00033815   -0.00034102   -0.00028381
     atom   45 type  1   force =    -0.00045528   -0.00167694    0.00226768
     atom   46 type  1   force =     0.00016908    0.00023843   -0.00010787
     atom   47 type  1   force =    -0.00085180    0.00247380    0.00357822
     atom   48 type  1   force =     0.00010723    0.00021620   -0.00010151
     atom   49 type  1   force =     0.00065804    0.00106024    0.00383009
     atom   50 type  1   force =     0.00021270    0.00012088   -0.00007858
     atom   51 type  1   force =     0.00622324    0.00401850   -0.00614897
     atom   52 type  1   force =    -0.00019276    0.00041330   -0.00011343
     atom   53 type  1   force =    -0.00076724   -0.00208254   -0.00149137
     atom   54 type  1   force =    -0.00021894   -0.00003160    0.00008508
     atom   55 type  2   force =     0.00003745    0.00013202    0.00001526

     Total force =     0.001966     Total SCF correction =     0.000092
     Energy error            =      5.5E-06 Ry
     Gradient error          =      5.1E-04 Ry/Bohr

     number of scf cycles    =   2
     number of bfgs steps    =   1

     energy             old  =  -13470.4302626571 Ry
     energy             new  =  -13470.4302681366 Ry

     CASE: energy            _new < energy            _old

     new trust radius        =       0.0009001053 bohr

     The maximum number of steps has been reached.

     End of BFGS Geometry Optimization

ATOMIC_POSITIONS (angstrom)
Se               1.6508891315        1.6837469017        3.7833800375    0   0   0
Se               3.7825028949        1.5953133264        7.4366951846
Se               3.1642919993        3.3592241142        2.8896998588    0   0   0
Se               0.9658378363        3.3746128579        6.6099073417
Se               1.7096930034        0.0137894932        2.0725911422    0   0   0
Se               3.7597828082       -0.0588090579        5.6994213650
Se               6.0005782781        1.6837487630        3.7833778388    0   0   0
Se               8.2817224055        1.6506222299        7.4414239299
Se               7.5139785082        3.3592256570        2.8896932891    0   0   0
Se               5.2216640404        3.3021506265        6.6245707927
Se               6.0593769531        0.0137906478        2.0725890956    0   0   0
Se               8.2444044989       -0.0089149585        5.7339461324
Se              10.3502724514        1.6837465223        3.7833710186    0   0   0
Se              12.5563634093        1.6626247629        7.3914348062
Se              11.8636766103        3.3592235671        2.8896932602    0   0   0
Se               9.6956105479        3.3841803627        6.6053950855
Se              10.4090773600        0.0137883654        2.0725834475    0   0   0
Se              12.5786397862        0.1047491706        5.5707683626
Se               1.6506855375        6.7280182182        3.7833117340    0   0   0
Se               3.4477617069        6.5069257517        7.3728016650
Se               3.1639926932        8.4039276883        2.8898890194    0   0   0
Se               0.9090278100        8.3810989463        6.6128176142
Se               1.7096973664        5.0585201930        2.0721673571    0   0   0
Se               3.6876606205        4.8814800407        5.6224564632
Se               6.0003746542        6.7280201319        3.7833094929    0   0   0
Se               8.2750782867        6.7816500582        7.3633515374
Se               7.5136792004        8.4039291964        2.8898825031    0   0   0
Se               4.8256850809        8.2585919404        6.5741169565
Se               6.0593813340        5.0585212997        2.0721652760    0   0   0
Se               8.1668007633        5.0524416473        5.7174457679
Se              10.3500690377        6.7280178865        3.7833025820    0   0   0
Se              12.4804384712        6.6784259059        7.4410569393
Se              11.8633773323        8.4039271251        2.8898823950    0   0   0
Se               9.9040013481        8.3451445675        6.5517057660
Se              10.4090817311        5.0585189658        2.0721595301    0   0   0
Se              12.5023429651        5.0397919571        5.6951027933
Se               1.6506538675       11.7727124308        3.7839128968    0   0   0
Se               3.2178788031       11.6702187355        7.3074601804
Se               3.1642562799       13.4480706906        2.8903550029    0   0   0
Se               1.0729328342       13.5403865421        6.4254152141
Se               1.7094434988       10.1032963955        2.0726019891    0   0   0
Se               3.4116629088        9.9893312935        5.5620281599
Se               6.0003428289       11.7727143070        3.7839105841    0   0   0
Se               8.9902645902       11.7836799309        7.3761041005
Se               7.5139427049       13.4480722022        2.8903484928    0   0   0
Se               4.9750920422       13.2178020263        6.7715327886
Se               6.0591274158       10.1032975129        2.0725999284    0   0   0
Se               8.5306180502       10.1390773522        5.6590447213
Se              10.3500372389       11.7727120227        3.7839038076    0   0   0
Se              12.6006373649       11.8613071161        7.2988595832
Se              11.8636409029       13.4480700929        2.8903483656    0   0   0
Se              10.0882339212       13.6478490332        6.3734597828
Se              10.4088279598       10.1032953896        2.0725941285    0   0   0
Se              12.5084400107       10.1100516786        5.6673610175
Fl               6.2683100840       10.5664937148        8.1208247555

     Writing config-only to output data dir ./pwscf.save/ :
     XML data file
     NEW-OLD atomic charge density approx. for the potential

     Writing all to output data dir ./pwscf.save/ :
     XML data file, charge density, pseudopotentials, collected wavefunctions

     General routines

     Parallel routines

   This run was terminated on:  15:20:23   6Jul2025

   JOB DONE.