     Program PWSCF v.6.7MaX starts on 28Aug2025 at 12:11:19

     R & G space division:  proc/nbgrp/npool/nimage =      10
     Waiting for input...
     Reading input from standard input

     Current dimensions of program PWSCF are:
     Max number of different atomic species (ntypx) = 10
     Max number of k-points (npk) =  40000
     Max angular momentum in pseudopotentials (lmaxx) =  3
     Message from routine read_pp_mesh:
     mesh size missing, using the one in header

     Message from routine setup:
     using ibrav=0 with symmetry is DISCOURAGED, use correct ibrav instead

     bravais-lattice index     =            0
     lattice parameter (alat)  =       7.2555  a.u.
     unit-cell volume          =     270.0773 (a.u.)^3
     number of atoms/cell      =            2
     number of atomic types    =            1
     number of electrons       =         8.00
     number of Kohn-Sham states=            8
     kinetic-energy cutoff     =      65.0000  Ry
     charge density cutoff     =     260.0000  Ry
     scf convergence threshold =      1.0E-10
     mixing beta               =       0.7000
     number of iterations used =            8  plain     mixing
     energy convergence thresh.=      1.0E-08
     force convergence thresh. =      1.0E-06
     press convergence thresh. =      5.0E-01
     Exchange-correlation= PBE
                           (   1   4   3   4   0   0   0)
     nstep                     =           50

     celldm(1)=   7.255506  celldm(2)=   0.000000  celldm(3)=   0.000000
     celldm(4)=   0.000000  celldm(5)=   0.000000  celldm(6)=   0.000000

     crystal axes: (cart. coord. in units of alat)
               a(1) = (   0.000000   0.707107   0.707107 )
               a(2) = (   0.707107   0.000000   0.707107 )
               a(3) = (   0.707107   0.707107   0.000000 )

     reciprocal axes: (cart. coord. in units 2 pi/alat)
               b(1) = ( -0.707107  0.707107  0.707107 )
               b(2) = (  0.707107 -0.707107  0.707107 )
               b(3) = (  0.707107  0.707107 -0.707107 )

     PseudoPot. # 1 for Si read from file:
     ./Si.upf
     MD5 check sum: 02fab3f35e82123ef5bf1cb05d5b1a5e
     Pseudo is Norm-conserving + core correction, Zval =  4.0
     Generated using ONCVPSP code by D. R. Hamann
     Using radial grid of 1510 points,  6 beta functions with:
                l(1) =   0
                l(2) =   0
                l(3) =   1
                l(4) =   1
                l(5) =   2
                l(6) =   2

     atomic species   valence    mass     pseudopotential
        Si             4.00    28.08500     Si( 1.00)

      2 Sym. Ops. (no inversion) found

   Cartesian axes

     site n.     atom                  positions (alat units)
         1           Si  tau(   1) = (   0.3646357   1.0418163   1.0418163  )
         2           Si  tau(   2) = (   0.0000000   0.0000000   0.0000000  )

     number of k points=   904  Gaussian smearing, width (Ry)=  0.0100

     Number of k-points >= 100: set verbosity='high' to print them.

     Initial potential from superposition of free atoms

     starting charge    7.99877, renormalised to    8.00000
     Starting wfcs are    8 randomized atomic wfcs

     Self-consistent Calculation

     iteration #  1     ecut=    65.00 Ry     beta= 0.70
     Davidson diagonalization with overlap
     ethr =  1.00E-02,  avg # of iterations =  5.0

     Threshold (ethr) on eigenvalues was too large:
     Diagonalizing with lowered threshold

     Davidson diagonalization with overlap
     ethr =  6.55E-04,  avg # of iterations =  1.7

     total energy              =     -16.91686783 Ry
     estimated scf accuracy    <       0.05599360 Ry

[...]

     iteration #  3     ecut=    65.00 Ry     beta= 0.70
     Davidson diagonalization with overlap
     c_bands:  1 eigenvalues not converged
     ethr =  2.68E-05,  avg # of iterations =  5.1

[...]

     End of self-consistent calculation

     Number of k-points >= 100: set verbosity='high' to print the bands.

     the Fermi energy is     6.7004 ev

!    total energy              =     -16.91933286 Ry
     estimated scf accuracy    <          6.6E-11 Ry
     smearing contrib. (-TS)   =      -0.00004546 Ry
     internal energy E=F+TS    =     -16.91928740 Ry

     The total energy is F=E-TS. E is the sum of the following terms:
     one-electron contribution =       4.96014382 Ry
     hartree contribution      =       1.09464846 Ry
     xc contribution           =      -6.18409477 Ry
     ewald contribution        =     -16.78998491 Ry

     convergence has been achieved in   6 iterations

     Forces acting on atoms (cartesian axes, Ry/au):

     atom    1 type  1   force =    -0.01514579    0.03376712    0.03376712
     atom    2 type  1   force =     0.01514579   -0.03376712   -0.03376712

     Total force =     0.070850     Total SCF correction =     0.000001

     Computing stress (Cartesian axis) and pressure

          total   stress  (Ry/bohr**3)                   (kbar)     P=       23.50
   0.00017081   0.00018315   0.00018315           25.13       26.94       26.94
   0.00018315   0.00015419  -0.00008767           26.94       22.68      -12.90
   0.00018315  -0.00008767   0.00015419           26.94      -12.90       22.68

     BFGS Geometry Optimization
     Energy error            =      0.0E+00
     Gradient error          =      3.4E-02
     Cell gradient error     =      1.8E-04

     number of scf cycles    =   1
     number of bfgs steps    =   0

     enthalpy new            =     -16.9193328559 Ry

     new trust radius        =       0.0500982218 bohr
     new conv_thr            =            1.0E-10 Ry

     new unit-cell volume =    273.31303 a.u.^3 (    40.50081 Ang^3 )
     density =      2.30298 g/cm^3

CELL_PARAMETERS (angstrom)
   0.024861902   2.719414658   2.719414658
   2.738924572   0.006480370   2.737796190
   2.738924572   2.737796190   0.006480370

ATOMIC_POSITIONS (angstrom)
Si            1.4347234201        4.0309237853        4.0309237853
Si            0.0078853968       -0.0178618073       -0.0178618073

     Writing output data file ./pwscf.save/
     NEW-OLD atomic charge density approx. for the potential
     extrapolated charge    8.09470, renormalised to    8.00000

[...]

     Energy error            =      4.6E-03
     Gradient error          =      1.5E-02
     Cell gradient error     =      5.9E-05

[...]

     enthalpy old            =     -16.9193328559 Ry
     enthalpy new            =     -16.9239712619 Ry

     CASE: enthalpy_new < enthalpy_old

[...]

     small trust_radius: resetting bfgs history

[...]

     Energy error            =      2.1E-09
     Gradient error          =      1.0E-05
     Cell gradient error     =      3.3E-07

     number of scf cycles    =   9
     number of bfgs steps    =   8

     enthalpy old            =     -16.9252748117 Ry
     enthalpy new            =     -16.9252748138 Ry

     CASE: enthalpy_new < enthalpy_old

     Message from routine bfgs:
     history already reset at previous step: stopping
     small trust_radius: resetting bfgs history

     new trust radius        =       0.0000285843 bohr
     new conv_thr            =            1.0E-12 Ry

     new unit-cell volume =    275.96158 a.u.^3 (    40.89329 Ang^3 )
     density =      2.28088 g/cm^3

[...]

ATOMIC_POSITIONS (angstrom)
Si            1.3886487187        4.0651753071        4.0651753071
Si            0.0214188055       -0.0364421810       -0.0364421810

     Writing output data file ./pwscf.save/
     NEW-OLD atomic charge density approx. for the potential
     extrapolated charge    7.99997, renormalised to    8.00000

[...]

     Threshold (ethr) on eigenvalues was too large:
     Diagonalizing with lowered threshold

     Davidson diagonalization with overlap
     ethr =  3.19E-13,  avg # of iterations =  3.9

[...]

     Message from routine bfgs:
     history already reset at previous step: stopping
     Energy error            =      1.1E-09
     Gradient error          =      5.5E-06
     Cell gradient error     =      2.5E-07

     bfgs converged in  10 scf cycles and   9 bfgs steps
     (criteria: energy <  1.0E-08 Ry, force <  1.0E-06Ry/Bohr, cell <  5.0E-01kbar)

     End of BFGS Geometry Optimization

     Final enthalpy =     -16.9252748149 Ry

     File ./pwscf.bfgs deleted, as requested
Begin final coordinates
     new unit-cell volume =    275.96158 a.u.^3 (    40.89329 Ang^3 )
     density =      2.28088 g/cm^3

CELL_PARAMETERS (angstrom)
  -0.000051795   2.734405328   2.734405328
   2.734545174  -0.000031933   2.734417620
   2.734545174   2.734417620  -0.000031933

ATOMIC_POSITIONS (angstrom)
Si            1.3886487187        4.0651753071        4.0651753071
Si            0.0214188055       -0.0364421810       -0.0364421810
End final coordinates

     Writing output data file ./pwscf.save/

     Final scf calculation at the relaxed structure.
     The G-vectors are recalculated for the final unit cell
     Results may differ from those at the preceding step.

     bravais-lattice index     =            0
     lattice parameter (alat)  =       7.2555  a.u.
     unit-cell volume          =     275.9616 (a.u.)^3
     number of atoms/cell      =            2
     number of atomic types    =            1
     number of electrons       =         8.00
     number of Kohn-Sham states=            8
     kinetic-energy cutoff     =      65.0000  Ry
     charge density cutoff     =     260.0000  Ry
     scf convergence threshold =      1.0E-12
     mixing beta               =       0.7000
     number of iterations used =            8  plain     mixing
     press convergence thresh. =      5.0E-01
     Exchange-correlation= PBE
                           (   1   4   3   4   0   0   0)

     celldm(1)=   7.255506  celldm(2)=   0.000000  celldm(3)=   0.000000
     celldm(4)=   0.000000  celldm(5)=   0.000000  celldm(6)=   0.000000

     crystal axes: (cart. coord. in units of alat)
               a(1) = (  -0.000013   0.712187   0.712187 )
               a(2) = (   0.712223  -0.000008   0.712190 )
               a(3) = (   0.712223   0.712190  -0.000008 )

     reciprocal axes: (cart. coord. in units 2 pi/alat)
               b(1) = ( -0.702015  0.702056  0.702056 )
               b(2) = (  0.702020 -0.702045  0.702058 )
               b(3) = (  0.702020  0.702058 -0.702045 )

     PseudoPot. # 1 for Si read from file:
     ./Si.upf
     MD5 check sum: 02fab3f35e82123ef5bf1cb05d5b1a5e
     Pseudo is Norm-conserving + core correction, Zval =  4.0
     Generated using ONCVPSP code by D. R. Hamann
     Using radial grid of 1510 points,  6 beta functions with:
                l(1) =   0
                l(2) =   0
                l(3) =   1
                l(4) =   1
                l(5) =   2
                l(6) =   2

     atomic species   valence    mass     pseudopotential
        Si             4.00    28.08500     Si( 1.00)

      2 Sym. Ops. (no inversion) found

   Cartesian axes

     site n.     atom                  positions (alat units)
         1           Si  tau(   1) = (   0.3616792   1.0587915   1.0587915  )
         2           Si  tau(   2) = (   0.0055786  -0.0094915  -0.0094915  )

     number of k points=   904  Gaussian smearing, width (Ry)=  0.0100

     Number of k-points >= 100: set verbosity='high' to print them.

     Initial potential from superposition of free atoms

     starting charge    7.99877, renormalised to    8.00000
     Starting wfcs are    8 randomized atomic wfcs

     Self-consistent Calculation

     iteration #  1     ecut=    65.00 Ry     beta= 0.70
     Davidson diagonalization with overlap
     c_bands:  1 eigenvalues not converged
     c_bands:  1 eigenvalues not converged
     c_bands:  1 eigenvalues not converged
     c_bands:  1 eigenvalues not converged
     c_bands:  2 eigenvalues not converged
     c_bands:  1 eigenvalues not converged
     c_bands:  1 eigenvalues not converged
     c_bands:  1 eigenvalues not converged
     c_bands:  1 eigenvalues not converged
     c_bands:  1 eigenvalues not converged
     c_bands:  1 eigenvalues not converged
     c_bands:  1 eigenvalues not converged
     c_bands:  1 eigenvalues not converged
     c_bands:  1 eigenvalues not converged
     c_bands:  1 eigenvalues not converged
     c_bands:  1 eigenvalues not converged
     c_bands:  1 eigenvalues not converged
     c_bands:  1 eigenvalues not converged
     c_bands:  1 eigenvalues not converged
     c_bands:  1 eigenvalues not converged
     c_bands:  1 eigenvalues not converged
     c_bands:  1 eigenvalues not converged
     c_bands:  1 eigenvalues not converged
     c_bands:  1 eigenvalues not converged
     c_bands:  1 eigenvalues not converged
     c_bands:  1 eigenvalues not converged
     c_bands:  1 eigenvalues not converged
     c_bands:  1 eigenvalues not converged
     c_bands:  1 eigenvalues not converged
     c_bands:  1 eigenvalues not converged
     c_bands:  1 eigenvalues not converged
     c_bands:  1 eigenvalues not converged
     c_bands:  1 eigenvalues not converged
     c_bands:  1 eigenvalues not converged
     c_bands:  1 eigenvalues not converged
     c_bands:  2 eigenvalues not converged
     c_bands:  2 eigenvalues not converged
     c_bands:  2 eigenvalues not converged
     c_bands:  1 eigenvalues not converged
     c_bands:  1 eigenvalues not converged
     c_bands:  1 eigenvalues not converged
     c_bands:  1 eigenvalues not converged
     c_bands:  1 eigenvalues not converged
     c_bands:  1 eigenvalues not converged
     c_bands:  1 eigenvalues not converged
     c_bands:  1 eigenvalues not converged
     c_bands:  1 eigenvalues not converged
     c_bands:  1 eigenvalues not converged
     c_bands:  1 eigenvalues not converged
     c_bands:  1 eigenvalues not converged
     c_bands:  1 eigenvalues not converged
     c_bands:  1 eigenvalues not converged
     c_bands:  1 eigenvalues not converged
     c_bands:  1 eigenvalues not converged
     c_bands:  1 eigenvalues not converged
     c_bands:  1 eigenvalues not converged
     c_bands:  1 eigenvalues not converged
     c_bands:  1 eigenvalues not converged
     c_bands:  1 eigenvalues not converged
     c_bands:  2 eigenvalues not converged
[...]
     c_bands:  1 eigenvalues not converged
     c_bands:  1 eigenvalues not converged
     c_bands:  1 eigenvalues not converged
     c_bands:  1 eigenvalues not converged
     c_bands:  1 eigenvalues not converged
     c_bands:  1 eigenvalues not converged
     c_bands:  1 eigenvalues not converged
     c_bands:  1 eigenvalues not converged
     c_bands:  1 eigenvalues not converged
     c_bands:  1 eigenvalues not converged
     c_bands:  1 eigenvalues not converged
     c_bands:  1 eigenvalues not converged
     c_bands:  1 eigenvalues not converged
     c_bands:  1 eigenvalues not converged
     c_bands:  1 eigenvalues not converged
     ethr =  1.00E-06,  avg # of iterations = 16.1

[...]

     total energy              =     -16.92527497 Ry
     estimated scf accuracy    <          1.2E-11 Ry

     iteration #  8     ecut=    65.00 Ry     beta= 0.70
     Davidson diagonalization with overlap
     ethr =  1.51E-13,  avg # of iterations =  2.2

     End of self-consistent calculation

     Number of k-points >= 100: set verbosity='high' to print the bands.

     the Fermi energy is     6.3100 ev

!    total energy              =     -16.92527497 Ry
     estimated scf accuracy    <          2.7E-14 Ry
     smearing contrib. (-TS)   =      -0.00000011 Ry
     internal energy E=F+TS    =     -16.92527485 Ry

     The total energy is F=E-TS. E is the sum of the following terms:
     one-electron contribution =       4.80070220 Ry
     hartree contribution      =       1.11369018 Ry
     xc contribution           =      -6.16036793 Ry
     ewald contribution        =     -16.67929931 Ry

     convergence has been achieved in   8 iterations

     Forces acting on atoms (cartesian axes, Ry/au):

     atom    1 type  1   force =    -0.00000548   -0.00000269   -0.00000269
     atom    2 type  1   force =     0.00000548    0.00000269    0.00000269

     Total force =     0.000009     Total SCF correction =     0.000000

     Computing stress (Cartesian axis) and pressure

          total   stress  (Ry/bohr**3)                   (kbar)     P=       -0.00
  -0.00000026   0.00000005   0.00000005           -0.04        0.01        0.01
   0.00000005   0.00000008   0.00000006            0.01        0.01        0.01
   0.00000005   0.00000006   0.00000008            0.01        0.01        0.01

     Writing output data file ./pwscf.save/

     General routines

     Parallel routines

   This run was terminated on:  12:18:44  28Aug2025

   JOB DONE.