     Program PWSCF v.6.7MaX starts on 28Aug2025 at 11:55: 1

     R & G space division:  proc/nbgrp/npool/nimage =       8
     Waiting for input...
     Reading input from standard input

     Current dimensions of program PWSCF are:
     Max number of different atomic species (ntypx) = 10
     Max number of k-points (npk) =  40000
     Max angular momentum in pseudopotentials (lmaxx) =  3
     Message from routine read_pp_mesh:
     mesh size missing, using the one in header

     Message from routine setup:
     using ibrav=0 with symmetry is DISCOURAGED, use correct ibrav instead

     bravais-lattice index     =            0
     lattice parameter (alat)  =       7.2555  a.u.
     unit-cell volume          =     270.0773 (a.u.)^3
     number of atoms/cell      =            2
     number of atomic types    =            1
     number of electrons       =         8.00
     number of Kohn-Sham states=            8
     kinetic-energy cutoff     =      65.0000  Ry
     charge density cutoff     =     260.0000  Ry
     scf convergence threshold =      1.0E-10
     mixing beta               =       0.7000
     number of iterations used =            8  plain     mixing
     energy convergence thresh.=      1.0E-04
     force convergence thresh. =      1.0E-03
     press convergence thresh. =      5.0E-01
     Exchange-correlation= PBE
                           (   1   4   3   4   0   0   0)
     nstep                     =           50

     celldm(1)=   7.255506  celldm(2)=   0.000000  celldm(3)=   0.000000
     celldm(4)=   0.000000  celldm(5)=   0.000000  celldm(6)=   0.000000

     crystal axes: (cart. coord. in units of alat)
               a(1) = (   0.000000   0.707107   0.707107 )
               a(2) = (   0.707107   0.000000   0.707107 )
               a(3) = (   0.707107   0.707107   0.000000 )

     reciprocal axes: (cart. coord. in units 2 pi/alat)
               b(1) = ( -0.707107  0.707107  0.707107 )
               b(2) = (  0.707107 -0.707107  0.707107 )
               b(3) = (  0.707107  0.707107 -0.707107 )

     PseudoPot. # 1 for Si read from file:
     ./Si.upf
     MD5 check sum: 02fab3f35e82123ef5bf1cb05d5b1a5e
     Pseudo is Norm-conserving + core correction, Zval =  4.0
     Generated using ONCVPSP code by D. R. Hamann
     Using radial grid of 1510 points,  6 beta functions with:
                l(1) =   0
                l(2) =   0
                l(3) =   1
                l(4) =   1
                l(5) =   2
                l(6) =   2

     atomic species   valence    mass     pseudopotential
        Si             4.00    28.08500     Si( 1.00)

     48 Sym. Ops., with inversion, found (24 have fractional translation)

   Cartesian axes

     site n.     atom                  positions (alat units)
         1           Si  tau(   1) = (   0.3535534   1.0606602   1.0606602  )
         2           Si  tau(   2) = (   0.0000000   0.0000000   0.0000000  )

     number of k points=   120  Gaussian smearing, width (Ry)=  0.0100

     Number of k-points >= 100: set verbosity='high' to print them.

     Initial potential from superposition of free atoms

     starting charge    7.99877, renormalised to    8.00000
     Starting wfcs are    8 randomized atomic wfcs

     Self-consistent Calculation

     iteration #  1     ecut=    65.00 Ry     beta= 0.70
     Davidson diagonalization with overlap
     ethr =  1.00E-02,  avg # of iterations =  4.8

     Threshold (ethr) on eigenvalues was too large:
     Diagonalizing with lowered threshold

     Davidson diagonalization with overlap
     ethr =  6.54E-04,  avg # of iterations =  1.8

     total energy              =     -16.92246886 Ry
     estimated scf accuracy    <       0.05589501 Ry

[...]

     End of self-consistent calculation

     Number of k-points >= 100: set verbosity='high' to print the bands.

     the Fermi energy is     6.5148 ev

!    total energy              =     -16.92488384 Ry
     estimated scf accuracy    <          3.7E-11 Ry
     smearing contrib. (-TS)   =      -0.00000022 Ry
     internal energy E=F+TS    =     -16.92488363 Ry

     The total energy is F=E-TS. E is the sum of the following terms:
     one-electron contribution =       4.96416559 Ry
     hartree contribution      =       1.09478246 Ry
     xc contribution           =      -6.18426917 Ry
     ewald contribution        =     -16.79956250 Ry

     convergence has been achieved in   7 iterations

     Forces acting on atoms (cartesian axes, Ry/au):

     atom    1 type  1   force =     0.00000000    0.00000000   -0.00000000
     atom    2 type  1   force =     0.00000000   -0.00000000   -0.00000000

     Total force =     0.000000     Total SCF correction =     0.000000

     Computing stress (Cartesian axis) and pressure

          total   stress  (Ry/bohr**3)                   (kbar)     P=       19.93
   0.00013547  -0.00000000  -0.00000000           19.93       -0.00       -0.00
  -0.00000000   0.00013547  -0.00000000           -0.00       19.93       -0.00
  -0.00000000  -0.00000000   0.00013547           -0.00       -0.00       19.93

     BFGS Geometry Optimization
     Energy error            =      0.0E+00
     Gradient error          =      2.3E-31
     Cell gradient error     =      1.4E-04

     number of scf cycles    =   1
     number of bfgs steps    =   0

     enthalpy new            =     -16.9248838447 Ry

     new trust radius        =       0.0111314339 bohr
     new conv_thr            =            1.0E-10 Ry

     new unit-cell volume =    272.83063 a.u.^3 (    40.42933 Ang^3 )
     density =      2.30705 g/cm^3

CELL_PARAMETERS (angstrom)
  -0.000000000   2.724094559   2.724094559
   2.724094559  -0.000000000   2.724094559
   2.724094559   2.724094559  -0.000000000

ATOMIC_POSITIONS (angstrom)
Si            1.3620472795        4.0861418385        4.0861418385
Si            0.0000000000       -0.0000000000       -0.0000000000

     Writing output data file ./pwscf.save/
     NEW-OLD atomic charge density approx. for the potential
     extrapolated charge    8.08072, renormalised to    8.00000

[...]

     Energy error            =      2.8E-04
     Gradient error          =      1.4E-31
     Cell gradient error     =      7.0E-05

[...]

     enthalpy old            =     -16.9248838447 Ry
     enthalpy new            =     -16.9251661161 Ry

     CASE: enthalpy_new < enthalpy_old

[...]

     number of scf cycles    =   3
     number of bfgs steps    =   2

     enthalpy old            =     -16.9251661161 Ry
     enthalpy new            =     -16.9252746869 Ry

     CASE: enthalpy_new < enthalpy_old

     new trust radius        =       0.0004311462 bohr
     new conv_thr            =            1.0E-12 Ry

     new unit-cell volume =    275.95861 a.u.^3 (    40.89285 Ang^3 )
     density =      2.28090 g/cm^3

[...]

ATOMIC_POSITIONS (angstrom)
Si            1.3672327516        4.1016982547        4.1016982547
Si            0.0000000000       -0.0000000000       -0.0000000000

     Writing output data file ./pwscf.save/
     NEW-OLD atomic charge density approx. for the potential
     extrapolated charge    8.00311, renormalised to    8.00000

[...]

     Threshold (ethr) on eigenvalues was too large:
     Diagonalizing with lowered threshold

     Davidson diagonalization with overlap
     ethr =  7.48E-10,  avg # of iterations =  2.8

[...]

     Energy error            =      1.3E-07
     Gradient error          =      2.3E-31
     Cell gradient error     =      4.3E-08

     bfgs converged in   4 scf cycles and   3 bfgs steps
     (criteria: energy <  1.0E-04 Ry, force <  1.0E-03Ry/Bohr, cell <  5.0E-01kbar)

     End of BFGS Geometry Optimization

     Final enthalpy =     -16.9252748170 Ry

     File ./pwscf.bfgs deleted, as requested
Begin final coordinates
     new unit-cell volume =    275.95861 a.u.^3 (    40.89285 Ang^3 )
     density =      2.28090 g/cm^3

CELL_PARAMETERS (angstrom)
  -0.000000000   2.734465503   2.734465503
   2.734465503  -0.000000000   2.734465503
   2.734465503   2.734465503  -0.000000000

ATOMIC_POSITIONS (angstrom)
Si            1.3672327516        4.1016982547        4.1016982547
Si            0.0000000000       -0.0000000000       -0.0000000000
End final coordinates

     Writing output data file ./pwscf.save/

     Final scf calculation at the relaxed structure.
     The G-vectors are recalculated for the final unit cell
     Results may differ from those at the preceding step.

     bravais-lattice index     =            0
     lattice parameter (alat)  =       7.2555  a.u.
     unit-cell volume          =     275.9586 (a.u.)^3
     number of atoms/cell      =            2
     number of atomic types    =            1
     number of electrons       =         8.00
     number of Kohn-Sham states=            8
     kinetic-energy cutoff     =      65.0000  Ry
     charge density cutoff     =     260.0000  Ry
     scf convergence threshold =      1.0E-12
     mixing beta               =       0.7000
     number of iterations used =            8  plain     mixing
     press convergence thresh. =      5.0E-01
     Exchange-correlation= PBE
                           (   1   4   3   4   0   0   0)

     celldm(1)=   7.255506  celldm(2)=   0.000000  celldm(3)=   0.000000
     celldm(4)=   0.000000  celldm(5)=   0.000000  celldm(6)=   0.000000

     crystal axes: (cart. coord. in units of alat)
               a(1) = (  -0.000000   0.712203   0.712203 )
               a(2) = (   0.712203  -0.000000   0.712203 )
               a(3) = (   0.712203   0.712203  -0.000000 )

     reciprocal axes: (cart. coord. in units 2 pi/alat)
               b(1) = ( -0.702047  0.702047  0.702047 )
               b(2) = (  0.702047 -0.702047  0.702047 )
               b(3) = (  0.702047  0.702047 -0.702047 )

     PseudoPot. # 1 for Si read from file:
     ./Si.upf
     MD5 check sum: 02fab3f35e82123ef5bf1cb05d5b1a5e
     Pseudo is Norm-conserving + core correction, Zval =  4.0
     Generated using ONCVPSP code by D. R. Hamann
     Using radial grid of 1510 points,  6 beta functions with:
                l(1) =   0
                l(2) =   0
                l(3) =   1
                l(4) =   1
                l(5) =   2
                l(6) =   2

     atomic species   valence    mass     pseudopotential
        Si             4.00    28.08500     Si( 1.00)

     48 Sym. Ops., with inversion, found (24 have fractional translation)

   Cartesian axes

     site n.     atom                  positions (alat units)
         1           Si  tau(   1) = (   0.3561013   1.0683040   1.0683040  )
         2           Si  tau(   2) = (   0.0000000  -0.0000000  -0.0000000  )

     number of k points=   120  Gaussian smearing, width (Ry)=  0.0100

     Number of k-points >= 100: set verbosity='high' to print them.

     Initial potential from superposition of free atoms

     starting charge    7.99877, renormalised to    8.00000
     Starting wfcs are    8 randomized atomic wfcs

     Self-consistent Calculation

     iteration #  1     ecut=    65.00 Ry     beta= 0.70
     Davidson diagonalization with overlap
     c_bands:  1 eigenvalues not converged
     c_bands:  1 eigenvalues not converged
     c_bands:  1 eigenvalues not converged
     c_bands:  1 eigenvalues not converged
     c_bands:  2 eigenvalues not converged
     c_bands:  1 eigenvalues not converged
     c_bands:  1 eigenvalues not converged
     c_bands:  1 eigenvalues not converged
     c_bands:  1 eigenvalues not converged
     c_bands:  1 eigenvalues not converged
     c_bands:  1 eigenvalues not converged
     c_bands:  1 eigenvalues not converged
     c_bands:  1 eigenvalues not converged
     ethr =  1.00E-06,  avg # of iterations = 15.6

[...]

     total energy              =     -16.92527497 Ry
     estimated scf accuracy    <          1.2E-11 Ry

     iteration #  8     ecut=    65.00 Ry     beta= 0.70
     Davidson diagonalization with overlap
     ethr =  1.53E-13,  avg # of iterations =  2.3

     End of self-consistent calculation

     Number of k-points >= 100: set verbosity='high' to print the bands.

     the Fermi energy is     6.3101 ev

!    total energy              =     -16.92527497 Ry
     estimated scf accuracy    <          5.0E-14 Ry
     smearing contrib. (-TS)   =      -0.00000011 Ry
     internal energy E=F+TS    =     -16.92527486 Ry

     The total energy is F=E-TS. E is the sum of the following terms:
     one-electron contribution =       4.80078338 Ry
     hartree contribution      =       1.11368072 Ry
     xc contribution           =      -6.16037980 Ry
     ewald contribution        =     -16.67935916 Ry

     convergence has been achieved in   8 iterations

     Forces acting on atoms (cartesian axes, Ry/au):

     atom    1 type  1   force =     0.00000000    0.00000000   -0.00000000
     atom    2 type  1   force =    -0.00000000   -0.00000000    0.00000000

     Total force =     0.000000     Total SCF correction =     0.000000

     Computing stress (Cartesian axis) and pressure

          total   stress  (Ry/bohr**3)                   (kbar)     P=        0.00
   0.00000003   0.00000000   0.00000000            0.00        0.00        0.00
   0.00000000   0.00000003   0.00000000            0.00        0.00        0.00
   0.00000000   0.00000000   0.00000003            0.00        0.00        0.00

     Writing output data file ./pwscf.save/

     General routines

     Parallel routines

   This run was terminated on:  11:55:29  28Aug2025

   JOB DONE.